54
mol to xyz file
O 3.7799 18.9963 0.0000
C 5.0592 18.4541 0.0000
C 6.2530 19.1817 0.0000
H 6.2302 20.2682 0.0000
C 7.4760 18.4763 0.0000
C 8.7166 19.2214 0.0000
C 9.7637 15.7021 0.0000
C 12.2568 12.9183 0.0000
C 11.0292 15.0003 0.0000
O 12.4269 11.5393 0.0000
C 11.0298 13.5884 0.0000
H 10.1003 13.0255 0.0000
C 13.4521 21.9195 0.0000
C 12.2630 19.8154 0.0000
C 12.2879 18.3685 0.0000
O 14.5613 22.7564 0.0000
C 13.4854 20.5219 0.0000
H 14.4376 19.9984 0.0000
O 12.4269 23.9887 0.0000
C 12.2568 22.6097 0.0000
C 11.0298 21.9396 0.0000
H 10.1003 22.5025 0.0000
C 11.0292 20.5277 0.0000
C 9.7637 19.8259 0.0000
O 14.5613 12.7716 0.0000
C 13.4521 13.6085 0.0000
C 13.4854 15.0061 0.0000
H 14.4376 15.5296 0.0000
C 12.2630 15.7126 0.0000
C 12.2879 17.1595 0.0000
O 3.7799 16.5317 0.0000
C 5.0592 17.0739 0.0000
C 6.2530 16.3463 0.0000
H 6.2302 15.2598 0.0000
C 7.4760 17.0517 0.0000
C 8.7166 16.3066 0.0000
B 2.9780 17.7640 0.0000
B 13.8951 11.4611 0.0000
B 13.8951 24.0669 0.0000
O 1.1359436614648177 16.891504008225617 0.32730000000000004
C 1.8757151988337857 17.960011599447483 -0.012799999999999999
O 1.3872589956603916 19.012590996728957 -0.29919999999999997
H 0.1764301328225506 17.220002224891196 0.5201
X 0.7290999999999999 17.8039 0.0
O 15.576418646489769 10.308889767895714 0.32730000000000004
C 14.280757262270162 10.410043005323553 -0.012799999999999999
O 13.617280399809315 9.45803916973301 -0.29919999999999997
H 15.77572223200234 9.314477694959232 0.5201
X 14.984913240109583 9.49346953859414 0.0
O 14.041464708334834 26.099877663958477 0.32730000000000004
C 14.607928122502928 24.930224039841907 -0.012799999999999999
O 15.764634444860551 24.83779388341065 -0.29919999999999997
H 14.799422910946145 26.773729764269984 0.5201
X 15.054113240109583 25.994630461405862 0.0
0 1 S
0 36 S
1 2 A
1 31 A
2 4 A
2 3 S
4 5 S
4 34 A
5 23 T
6 8 S
6 35 T
7 10 A
7 25 A
7 9 S
8 28 A
8 10 A
9 37 S
10 11 S
12 19 A
12 15 S
12 16 A
13 22 A
13 16 A
13 14 S
14 29 T
15 38 S
16 17 S
18 38 S
18 19 S
19 20 A
20 21 S
20 22 A
22 23 S
24 25 S
24 37 S
25 26 A
26 28 A
26 27 S
28 29 S
30 31 S
30 36 S
31 32 A
32 34 A
32 33 S
34 35 S
39 40 S
40 41 A
39 42 S
36 40 S
43 42 S
44 45 S
45 46 A
44 47 S
37 45 S
48 47 S
49 50 S
50 51 A
49 52 S
38 50 S
53 52 S
