81
mol to xyz file
C -5.6941 19.7815 1.6900
C -5.0349 20.9953 1.6900
C -5.7488 22.2002 1.6900
C -5.0784 23.4239 1.6900
C -3.6701 23.4788 1.6900
C -2.9829 22.2410 1.6900
C -3.6223 20.9871 1.6900
O -7.0567 19.5948 1.6900
H -6.8322 22.1982 1.6900
H -5.6897 24.3100 1.6900
H -1.9413 22.2450 1.6900
C 4.9758 18.5373 1.6900
C 3.5949 18.5013 1.6900
C 2.9085 17.2806 1.6900
C 1.5135 17.2493 1.6900
C 0.7619 18.4415 1.6900
C 1.4902 19.6555 1.6900
C 2.8958 19.7287 1.6900
O 5.8188 17.4506 1.6900
H 3.4519 16.3433 1.6900
H 1.0518 16.2768 1.6900
H 0.9659 20.5555 1.6900
C 0.7183 28.3998 1.6900
C 1.4399 27.2220 1.6900
C 2.8403 27.2378 1.6900
C 3.5649 26.0454 1.6900
C 2.9083 24.7984 1.6900
C 1.4927 24.8221 1.6900
C 0.7265 26.0028 1.6900
O 1.2379 29.6732 1.6900
H 3.3803 28.1771 1.6900
H 4.6380 26.1318 1.6900
H 0.9754 23.9180 1.6900
C -0.7183 28.3998 1.6900
C -1.4399 27.2220 1.6900
C -2.8403 27.2378 1.6900
C -3.5649 26.0454 1.6900
C -2.9083 24.7984 1.6900
C -1.4927 24.8221 1.6900
C -0.7265 26.0028 1.6900
O -1.2379 29.6732 1.6900
H -3.3803 28.1771 1.6900
H -4.6380 26.1318 1.6900
H -0.9754 23.9180 1.6900
C 5.6941 19.7815 1.6900
C 5.0349 20.9953 1.6900
C 5.7488 22.2002 1.6900
C 5.0784 23.4239 1.6900
C 3.6701 23.4788 1.6900
C 2.9829 22.2410 1.6900
C 3.6223 20.9871 1.6900
O 7.0567 19.5948 1.6900
H 6.8322 22.1982 1.6900
H 5.6897 24.3100 1.6900
H 1.9413 22.2450 1.6900
C -4.9758 18.5373 1.6900
C -3.5949 18.5013 1.6900
C -2.9085 17.2806 1.6900
C -1.5135 17.2493 1.6900
C -0.7619 18.4415 1.6900
C -1.4902 19.6555 1.6900
C -2.8958 19.7287 1.6900
O -5.8188 17.4506 1.6900
H -3.4519 16.3433 1.6900
H -1.0518 16.2768 1.6900
H -0.9659 20.5555 1.6900
B -7.1082 18.1356 1.6900
B 7.1082 18.1356 1.6900
B 0.0000 30.4474 1.6900
N -7.815397433409429 17.390737133306327 1.7063
H -8.252155541822358 17.400799674514282 0.7765999999999998
H -8.541723231042031 17.71038288361965 2.3587
X -9.06963978200611 17.033702903495275 1.69
N 8.104974569141197 17.887831240239247 1.7063
H 8.311656052796664 17.50293948361932 0.7765999999999998
H 8.18518674295167 17.09834496602506 2.3587
X 9.043139782006111 16.987902903495275 1.69
N -0.28915823153245745 31.432964009659962 1.7063
H -0.06118911868656543 31.80564213296244 0.7765999999999998
H 0.3519258669587545 31.9006538092726 2.3587
X 0.02649999999999997 32.6969 1.69
0 7 S
0 1 A
0 55 A
1 6 A
1 2 A
2 8 S
2 3 A
3 4 A
3 9 S
4 37 S
4 5 A
5 10 S
5 6 A
6 61 A
7 66 S
11 12 A
11 44 A
11 18 S
12 17 A
12 13 A
13 19 S
13 14 A
14 20 S
14 15 A
15 59 S
15 16 A
16 21 S
16 17 A
17 50 A
18 67 S
22 29 S
22 33 A
22 23 A
23 24 A
23 28 A
24 30 S
24 25 A
25 31 S
25 26 A
26 27 A
26 48 S
27 28 A
27 32 S
28 39 A
29 68 S
33 40 S
33 34 A
34 35 A
34 39 A
35 41 S
35 36 A
36 42 S
36 37 A
37 38 A
38 39 A
38 43 S
40 68 S
44 51 S
44 45 A
45 50 A
45 46 A
46 52 S
46 47 A
47 48 A
47 53 S
48 49 A
49 54 S
49 50 A
51 67 S
55 56 A
55 62 S
56 61 A
56 57 A
57 63 S
57 58 A
58 64 S
58 59 A
59 60 A
60 65 S
60 61 A
62 66 S
69 70 S
69 71 S
66 70 S
72 71 S
73 74 S
73 75 S
67 74 S
76 75 S
77 78 S
77 79 S
68 78 S
80 79 S
