90
mol to xyz file
O 3.3646 21.6434 0.0000
C 4.6168 21.1423 0.0000
C 5.7299 21.9209 0.0000
C 5.5502 23.3129 0.0000
H 4.5412 23.7169 0.0000
C 6.6732 24.0636 0.0000
H 6.6857 25.1507 0.0000
C 7.8935 23.3669 0.0000
C 9.0183 24.1195 0.0000
C 14.8812 16.6079 0.0000
C 12.3762 16.4626 0.0000
C 15.0056 22.9543 0.0000
O 15.0247 12.5597 0.0000
C 14.8326 13.8946 0.0000
C 13.6017 14.4693 0.0000
C 12.4861 13.6176 0.0000
H 12.6407 12.5419 0.0000
C 11.2744 14.2149 0.0000
H 10.3268 13.6821 0.0000
C 11.2677 15.6200 0.0000
C 10.0535 16.2178 0.0000
C 13.6273 25.0510 0.0000
C 8.0689 21.9856 0.0000
C 16.0014 26.3656 0.0000
C 16.2896 22.4156 0.0000
O 17.0614 27.1995 0.0000
C 16.1191 25.0123 0.0000
C 17.4145 24.4720 0.0000
H 18.2688 25.1437 0.0000
C 17.5031 23.1240 0.0000
H 18.4383 22.5697 0.0000
C 16.3790 21.0652 0.0000
C 6.9423 19.7436 0.0000
O 15.0247 28.3753 0.0000
C 14.8326 27.0404 0.0000
C 13.6017 26.4657 0.0000
C 12.4861 27.3174 0.0000
H 12.6407 28.3931 0.0000
C 11.2744 26.7201 0.0000
H 10.3268 27.2529 0.0000
C 11.2677 25.3150 0.0000
C 10.0535 24.7172 0.0000
C 13.6273 15.8840 0.0000
C 15.0056 17.9807 0.0000
O 17.0614 13.7355 0.0000
C 16.0014 14.5694 0.0000
C 16.2896 18.5194 0.0000
C 16.3790 19.8698 0.0000
C 6.9423 21.1914 0.0000
C 8.0689 18.9494 0.0000
C 16.1191 15.9227 0.0000
C 17.4145 16.4630 0.0000
H 18.2688 15.7913 0.0000
C 17.5031 17.8110 0.0000
H 18.4383 18.3653 0.0000
C 9.0183 16.8155 0.0000
C 14.8812 24.3271 0.0000
C 12.3762 24.4724 0.0000
O 3.3646 19.2916 0.0000
C 4.6168 19.7927 0.0000
C 5.7299 19.0141 0.0000
C 5.5502 17.6221 0.0000
H 4.5412 17.2181 0.0000
C 6.6732 16.8714 0.0000
H 6.6857 15.7843 0.0000
C 7.8935 17.5681 0.0000
B 2.6599 20.4675 0.0000
B 16.3954 12.5373 0.0000
B 16.3954 28.3977 0.0000
H 14.1576 18.6619 0.0000
H 12.2103 23.3974 0.0000
H 9.0828 19.3432 0.0000
H 12.2103 17.5376 0.0000
H 9.0828 21.5918 0.0000
H 14.1576 22.2731 0.0000
O 0.8178436614648184 19.595004008225622 0.32730000000000004
C 1.5576151988337854 20.663511599447485 -0.012799999999999999
O 1.0691589956603913 21.71609099672896 -0.29919999999999997
H -0.14166986717744967 19.923502224891198 0.5201
X 0.4099999999999999 20.4798 0.0
O 18.076702973961584 11.385066898692834 0.32730000000000004
C 16.781042965748966 11.486237759707665 -0.012799999999999999
O 16.117553154185824 10.534242948822694 -0.29919999999999997
H 18.275993033454867 10.3906521149194 0.5201
X 17.50979552332499 10.582659309724106 0.0
O 16.5417373750109 30.430679631642903 0.32730000000000004
C 17.108216515078205 29.26103362371204 -0.012799999999999999
O 18.26492408005137 29.168619019163547 -0.29919999999999997
H 17.29968651763674 31.104541922613958 0.5201
X 17.53099552332499 30.340040690275895 0.0
0 66 S
0 1 S
1 59 A
1 2 A
2 3 A
2 48 A
3 5 A
3 4 S
5 7 A
5 6 S
7 8 S
7 22 A
8 41 T
9 43 A
9 42 A
9 50 A
10 72 S
10 19 A
10 42 A
11 74 S
11 24 A
11 56 A
12 13 S
12 67 S
13 14 A
13 45 A
14 42 A
14 15 A
15 16 S
15 17 A
17 19 A
17 18 S
19 20 S
20 55 T
21 35 A
21 57 A
21 56 A
22 73 S
22 48 A
23 26 A
23 25 S
23 34 A
24 29 A
24 31 S
25 68 S
26 27 A
26 56 A
27 29 A
27 28 S
29 30 S
31 47 T
32 48 A
32 60 A
32 49 A
33 68 S
33 34 S
34 35 A
35 36 A
36 38 A
36 37 S
38 39 S
38 40 A
40 57 A
40 41 S
43 69 S
43 46 A
44 67 S
44 45 S
45 50 A
46 53 A
46 47 S
49 71 S
49 65 A
50 51 A
51 53 A
51 52 S
53 54 S
55 65 S
57 70 S
58 66 S
58 59 S
59 60 A
60 61 A
61 63 A
61 62 S
63 65 A
63 64 S
75 76 S
76 77 A
75 78 S
66 76 S
79 78 S
80 81 S
81 82 A
80 83 S
67 81 S
84 83 S
85 86 S
86 87 A
85 88 S
68 86 S
89 88 S
