102
mol to xyz file
C 4.6168 21.1423 0.0000
C 5.7299 21.9209 0.0000
C 5.5502 23.3129 0.0000
C 6.6732 24.0636 0.0000
C 7.8935 23.3669 0.0000
C 9.0183 24.1195 0.0000
C 14.8812 16.6079 0.0000
C 12.3762 16.4626 0.0000
C 15.0056 22.9543 0.0000
C 14.8326 13.8946 0.0000
C 13.6017 14.4693 0.0000
C 12.4861 13.6176 0.0000
C 11.2744 14.2149 0.0000
C 11.2677 15.6200 0.0000
C 10.0535 16.2178 0.0000
C 13.6273 25.0510 0.0000
C 8.0689 21.9856 0.0000
C 16.0014 26.3656 0.0000
C 16.2896 22.4156 0.0000
C 16.1191 25.0123 0.0000
C 17.4145 24.4720 0.0000
C 17.5031 23.1240 0.0000
C 16.3790 21.0652 0.0000
C 6.9423 19.7436 0.0000
C 14.8326 27.0404 0.0000
C 13.6017 26.4657 0.0000
C 12.4861 27.3174 0.0000
C 11.2744 26.7201 0.0000
C 11.2677 25.3150 0.0000
C 10.0535 24.7172 0.0000
C 13.6273 15.8840 0.0000
C 15.0056 17.9807 0.0000
C 16.0014 14.5694 0.0000
C 16.2896 18.5194 0.0000
C 16.3790 19.8698 0.0000
C 6.9423 21.1914 0.0000
C 8.0689 18.9494 0.0000
C 16.1191 15.9227 0.0000
C 17.4145 16.4630 0.0000
C 17.5031 17.8110 0.0000
C 9.0183 16.8155 0.0000
C 14.8812 24.3271 0.0000
C 12.3762 24.4724 0.0000
C 4.6168 19.7927 0.0000
C 5.7299 19.0141 0.0000
C 5.5502 17.6221 0.0000
C 6.6732 16.8714 0.0000
C 7.8935 17.5681 0.0000
O 4.4891 16.7860 0.0000
B 4.9564 15.5185 0.0000
O 6.3063 15.5713 0.0000
O 4.4891 24.1490 -0.0000
B 4.9564 25.4165 -0.0000
O 6.3063 25.3637 -0.0000
O 12.2925 28.6543 0.0000
B 10.9612 28.8834 0.0000
O 10.3320 27.6880 0.0000
O 18.6691 24.9728 -0.0000
B 19.5331 23.9344 -0.0000
O 18.8125 22.7917 -0.0000
O 18.6691 15.9622 0.0000
B 19.5331 17.0006 0.0000
O 18.8125 18.1433 0.0000
O 12.2925 12.2807 -0.0000
B 10.9612 12.0516 -0.0000
O 10.3320 13.2470 -0.0000
H 3.6295 21.7123 -0.0000
H 12.2325 17.5935 -0.0000
H 14.0980 22.2644 -0.0000
H 14.9314 12.7589 0.0000
H 9.1202 21.5445 -0.0000
H 16.9356 27.0190 0.0000
H 14.8326 28.1804 0.0000
H 14.0738 18.6375 -0.0000
H 16.9887 13.9994 0.0000
H 9.1036 19.4280 -0.0000
H 12.2733 23.3370 -0.0000
H 3.6295 19.2227 0.0000
N 4.32788941184257 14.706143341521717 0.016300000000000002
H 3.892341648642718 14.672127963064218 -0.9134
H 3.573041895602792 14.95094488813987 0.6687000000000001
X 3.260190702079592 14.064443661026145 0.0
N 3.989256747465441 25.762307502921598 0.016300000000000002
H 3.821934861404322 26.165869501188222 -0.9134
H 3.9880697027677874 26.555857224693895 0.6687000000000001
X 3.2601907020795924 26.870556338973856 -0.0
N 10.574014597556545 29.834733991894907 0.016300000000000002
H 10.763192451886674 30.228524087543658 -0.9134
H 11.164603942922628 30.364759269726132 0.6687000000000001
X 10.550061566084157 31.07940541367133 0.0
N 20.31171682118834 24.604254272034275 0.016300000000000002
H 20.745240994717214 24.550257133535016 -0.9134
H 21.00215846398746 24.213085628238716 0.6687000000000001
X 21.640538697792024 24.676254313416656 -0.0
N 20.549373383394716 16.851813877651647 0.016300000000000002
H 20.792817244832833 16.489055023413602 -0.9134
H 20.706650289240965 16.07400506766848 0.6687000000000001
X 21.640538697792024 16.258745686583342 0.0
N 11.149366897823048 11.041876216699018 0.016300000000000002
H 10.88493310987585 10.694121027245433 -0.9134
H 10.464335969539707 10.64130762420172 0.6687000000000001
X 10.550061566084157 9.855594586328667 -0.0
0 43 A
0 66 S
0 1 A
1 2 A
1 35 A
2 3 A
2 51 S
3 4 A
3 53 S
4 5 S
4 16 A
5 29 T
6 31 A
6 30 A
6 37 A
7 67 S
7 13 A
7 30 A
8 68 S
8 18 A
8 41 A
9 69 S
9 10 A
9 32 A
10 30 A
10 11 A
11 12 A
11 63 S
12 13 A
12 65 S
13 14 S
14 40 T
15 25 A
15 42 A
15 41 A
16 70 S
16 35 A
17 19 A
17 71 S
17 24 A
18 21 A
18 22 S
19 20 A
19 41 A
20 21 A
20 57 S
21 59 S
22 34 T
23 35 A
23 44 A
23 36 A
24 72 S
24 25 A
25 26 A
26 27 A
26 54 S
27 56 S
27 28 A
28 42 A
28 29 S
31 73 S
31 33 A
32 37 A
32 74 S
33 39 A
33 34 S
36 75 S
36 47 A
37 38 A
38 60 S
38 39 A
39 62 S
40 47 S
42 76 S
43 77 S
43 44 A
44 45 A
45 46 A
45 48 S
46 47 A
46 50 S
48 49 S
49 50 S
51 52 S
52 53 S
54 55 S
55 56 S
57 58 S
58 59 S
60 61 S
61 62 S
63 64 S
64 65 S
78 79 S
78 80 S
49 79 S
81 80 S
82 83 S
82 84 S
52 83 S
85 84 S
86 87 S
86 88 S
55 87 S
89 88 S
90 91 S
90 92 S
58 91 S
93 92 S
94 95 S
94 96 S
61 95 S
97 96 S
98 99 S
98 100 S
64 99 S
101 100 S
