49
mol to xyz file
B 5.1794 15.0971 0.0000
B -0.0000 24.0680 0.0000
B -5.1794 15.0971 0.0000
C -1.2430 17.3697 0.7050
C 1.2430 17.3697 0.7050
C 0.0000 19.5227 0.7050
C -0.0000 19.5227 -0.7050
C 1.2430 17.3697 -0.7050
C -1.2430 17.3697 -0.7050
C -3.3229 16.1689 -0.6967
C 3.3229 16.1689 -0.6967
C 0.0000 21.9244 -0.6967
C -0.0000 21.9244 0.6967
C 3.3229 16.1689 0.6967
C -3.3229 16.1689 0.6967
C -0.0000 18.0874 1.2873
C -0.0000 18.0874 -1.2873
H -2.3005 16.7592 -2.5196
H 2.3005 16.7592 -2.5196
H 0.0000 20.7437 -2.5196
H -0.0000 20.7437 2.5196
H 2.3005 16.7592 2.5196
H -2.3005 16.7592 2.5196
H -0.0000 18.0874 -2.3862
H -0.0000 18.0874 2.3862
O -4.4639 15.5102 -1.1507
O 4.4639 15.5102 -1.1507
O 0.0000 23.2418 -1.1507
O -0.0000 23.2418 1.1507
O 4.4639 15.5102 1.1507
O -4.4639 15.5102 1.1507
C 2.2878 16.7665 1.4280
C -0.0000 20.7291 1.4280
C -2.2878 16.7665 1.4280
C 2.2878 16.7665 -1.4280
C -2.2878 16.7665 -1.4280
C 0.0000 20.7291 -1.4280
N 6.176733264190658 14.851589796263358 0.016300000000000002
H 6.384286084651519 14.467167207542635 -0.9134
H 6.258733597573029 14.062287246333876 0.6687000000000001
X 7.12464479750237 13.97396924937031 -0.0555913379977071
N -0.2883874745500295 25.053789817619688 0.016300000000000002
H -0.06012701317045315 25.426289564962936 -0.9134
H 0.35306214120985613 25.520978174111477 0.6687000000000001
X 0.0 26.31418456843434 -0.05559136295857832
N -5.885728912700155 14.351413492757299 0.016300000000000002
H -6.322498451114368 14.360967042539233 -0.9134
H -6.612426722545061 14.670212588061252 0.6687000000000001
X -7.12464479750237 13.97396924937031 -0.0555913379977071
0 26 S
0 29 S
1 27 S
1 28 S
2 25 S
2 30 S
3 33 A
3 15 S
3 8 A
4 31 A
4 15 S
4 7 A
5 32 A
5 15 S
5 6 A
6 36 A
6 16 S
7 34 A
7 16 S
8 35 A
8 16 S
9 35 A
9 25 S
9 14 A
10 34 A
10 26 S
10 13 A
11 27 S
11 36 A
11 12 A
12 28 S
12 32 A
13 31 A
13 29 S
14 33 A
14 30 S
15 24 S
16 23 S
17 35 S
18 34 S
19 36 S
20 32 S
21 31 S
22 33 S
37 38 S
37 39 S
0 38 S
40 39 S
41 42 S
41 43 S
1 42 S
44 43 S
45 46 S
45 47 S
2 46 S
48 47 S
