52
mol to xyz file
B 5.1794 15.0971 0.0000
B -0.0000 24.0680 0.0000
B -5.1794 15.0971 0.0000
C -1.2430 17.3697 0.7050
C 1.2430 17.3697 0.7050
C 0.0000 19.5227 0.7050
C -0.0000 19.5227 -0.7050
C 1.2430 17.3697 -0.7050
C -1.2430 17.3697 -0.7050
C -3.3229 16.1689 -0.6967
C 3.3229 16.1689 -0.6967
C 0.0000 21.9244 -0.6967
C -0.0000 21.9244 0.6967
C 3.3229 16.1689 0.6967
C -3.3229 16.1689 0.6967
C -0.0000 18.0874 1.2873
C -0.0000 18.0874 -1.2873
H -2.3005 16.7592 -2.5196
H 2.3005 16.7592 -2.5196
H 0.0000 20.7437 -2.5196
H -0.0000 20.7437 2.5196
H 2.3005 16.7592 2.5196
H -2.3005 16.7592 2.5196
H -0.0000 18.0874 -2.3862
H -0.0000 18.0874 2.3862
O -4.4639 15.5102 -1.1507
O 4.4639 15.5102 -1.1507
O 0.0000 23.2418 -1.1507
O -0.0000 23.2418 1.1507
O 4.4639 15.5102 1.1507
O -4.4639 15.5102 1.1507
C 2.2878 16.7665 1.4280
C -0.0000 20.7291 1.4280
C -2.2878 16.7665 1.4280
C 2.2878 16.7665 -1.4280
C -2.2878 16.7665 -1.4280
C 0.0000 20.7291 -1.4280
O 7.211169102616003 14.93481899786185 0.32730000000000004
C 6.0371152219244655 14.377532818925804 -0.012799999999999999
O 5.935629428826364 13.221585811576741 -0.29919999999999997
H 7.879064769619861 14.171606925107842 0.5201
X 7.12464479750237 13.97396924937031 -0.0555913379977071
O -0.8850185316456657 25.904072713332386 0.32730000000000004
C 0.18850147575329396 25.171593912469092 -0.012799999999999999
O 1.2377305192928454 25.6672059222036 -0.29919999999999997
H -0.5630613645543651 26.865800779138176 0.5201
X 0.0 26.31418456843434 -0.05559136295857832
O -6.365513416931916 13.43952473106827 0.32730000000000004
C -6.238071413740164 14.732864955379906 -0.012799999999999999
O -7.176406437343145 15.41553635032772 -0.29919999999999997
H -7.363767501805223 13.260454711149372 0.5201
X -7.12464479750237 13.97396924937031 -0.0555913379977071
0 26 S
0 29 S
1 27 S
1 28 S
2 25 S
2 30 S
3 33 A
3 15 S
3 8 A
4 31 A
4 15 S
4 7 A
5 32 A
5 15 S
5 6 A
6 36 A
6 16 S
7 34 A
7 16 S
8 35 A
8 16 S
9 35 A
9 25 S
9 14 A
10 34 A
10 26 S
10 13 A
11 27 S
11 36 A
11 12 A
12 28 S
12 32 A
13 31 A
13 29 S
14 33 A
14 30 S
15 24 S
16 23 S
17 35 S
18 34 S
19 36 S
20 32 S
21 31 S
22 33 S
37 38 S
38 39 A
37 40 S
0 38 S
41 40 S
42 43 S
43 44 A
42 45 S
1 43 S
46 45 S
47 48 S
48 49 A
47 50 S
2 48 S
51 50 S
