42
mol to xyz file
C -2.2848 2.3217 0.0000
C -1.5148 0.9880 0.0000
C 0.0252 0.9880 0.0000
C 0.7952 2.3217 0.0000
C 0.0252 3.6554 0.0000
C -1.5148 3.6554 0.0000
C 0.7952 -0.3457 -0.0000
C 0.0252 -1.6794 -0.0000
C -1.5148 -1.6794 -0.0000
C -2.2848 -0.3457 -0.0000
O 1.0556 -2.8238 -0.0000
B 2.4625 -2.1974 -0.0000
O 2.3015 -0.6659 -0.0000
O -3.7912 -0.6659 -0.0000
B -3.9522 -2.1974 -0.0000
O -2.5453 -2.8238 -0.0000
O 1.0556 4.7998 -0.0000
B 2.4625 4.1734 -0.0000
O 2.3015 2.6419 -0.0000
O -3.7912 2.6419 -0.0000
B -3.9522 4.1734 -0.0000
O -2.5453 4.7998 -0.0000
O 4.390608601854425 -2.858322105436771 0.32730000000000004
C 3.1150468276157386 -3.1071444519031903 -0.012799999999999999
O 2.7301519621568353 -4.201844772787117 -0.29919999999999997
H 4.84844148128016 -3.7632896985122035 0.5201
X 4.139987631581497 -3.6888370034312956 0.0
O -4.598700625855995 -4.130391916891483 0.32730000000000004
C -4.857044521258238 -2.8567244439188877 -0.012799999999999999
O -5.954589476989991 -2.480017767381581 -0.29919999999999997
H -5.500222941613042 -4.594972162050541 0.5201
X -5.695084954342922 -3.566027616174466 0.0
O 3.1307686185241375 6.098974683956932 0.32730000000000004
C 3.374725810649366 4.822473493824164 -0.012799999999999999
O 4.467950682711514 4.433407652218015 -0.29919999999999997
H 4.037475217451753 6.553353857622621 0.5201
X 4.139987631581497 5.664837003431296 -0.0
O -5.872120635973786 4.857743160674537 0.32730000000000004
C -4.593624560551017 5.091020217258716 -0.012799999999999999
O -4.195432903582028 6.180954276878973 -0.29919999999999997
H -6.31890382098695 5.768216705369545 0.5201
X -5.695084954342922 5.542027616174466 -0.0
0 19 S
0 5 A
0 1 A
1 2 A
1 9 A
2 3 A
2 6 A
3 18 S
3 4 A
4 16 S
4 5 A
5 21 S
6 7 A
6 12 S
7 8 A
7 10 S
8 9 A
8 15 S
9 13 S
10 11 S
11 12 S
13 14 S
14 15 S
16 17 S
17 18 S
19 20 S
20 21 S
22 23 S
23 24 A
22 25 S
11 23 S
26 25 S
27 28 S
28 29 A
27 30 S
14 28 S
31 30 S
32 33 S
33 34 A
32 35 S
17 33 S
36 35 S
37 38 S
38 39 A
37 40 S
20 38 S
41 40 S
