38
mol to xyz file
C -2.2848 2.3217 0.0000
C -1.5148 0.9880 0.0000
C 0.0252 0.9880 0.0000
C 0.7952 2.3217 0.0000
C 0.0252 3.6554 0.0000
C -1.5148 3.6554 0.0000
C 0.7952 -0.3457 -0.0000
C 0.0252 -1.6794 -0.0000
C -1.5148 -1.6794 -0.0000
C -2.2848 -0.3457 -0.0000
O 1.0556 -2.8238 -0.0000
B 2.4625 -2.1974 -0.0000
O 2.3015 -0.6659 -0.0000
O -3.7912 -0.6659 -0.0000
B -3.9522 -2.1974 -0.0000
O -2.5453 -2.8238 -0.0000
O 1.0556 4.7998 -0.0000
B 2.4625 4.1734 -0.0000
O 2.3015 2.6419 -0.0000
O -3.7912 2.6419 -0.0000
B -3.9522 4.1734 -0.0000
O -2.5453 4.7998 -0.0000
N 3.3672777284733293 -2.6835338931391655 0.016300000000000002
H 3.4725625634516843 -3.107531538797229 -0.9134
H 3.250141286574097 -3.468391602522967 0.6687000000000001
X 4.139987631581497 -3.6888370034312956 0.0
N -4.44080332039681 -3.1008465647160395 0.016300000000000002
H -4.865086951445946 -3.2049729322881437 -0.9134
H -5.225338164702441 -2.9815668595255103 0.6687000000000001
X -5.695084954342922 -3.566027616174466 0.0
N 2.96206685726794 5.070830696555134 0.016300000000000002
H 3.3875868116592 5.1697835561139165 -0.9134
H 3.745091281438425 4.942007868017326 0.6687000000000001
X 4.139987631581497 5.664837003431296 -0.0
N -4.851015637760553 4.670470768922384 0.016300000000000002
H -4.951150729511665 5.095714067987751 -0.9134
H -4.724369505326966 5.453850196236898 0.6687000000000001
X -5.695084954342922 5.542027616174466 -0.0
0 19 S
0 5 A
0 1 A
1 2 A
1 9 A
2 3 A
2 6 A
3 18 S
3 4 A
4 16 S
4 5 A
5 21 S
6 7 A
6 12 S
7 8 A
7 10 S
8 9 A
8 15 S
9 13 S
10 11 S
11 12 S
13 14 S
14 15 S
16 17 S
17 18 S
19 20 S
20 21 S
22 23 S
22 24 S
11 23 S
25 24 S
26 27 S
26 28 S
14 27 S
29 28 S
30 31 S
30 32 S
17 31 S
33 32 S
34 35 S
34 36 S
20 35 S
37 36 S
