56
mol to xyz file
C 0.9680 0.4750 -0.0020
C 1.6620 -0.7480 -0.0010
C 3.0620 -0.7500 0.0010
C 3.7590 0.4710 0.0020
C 3.0650 1.6930 0.0010
C 1.6650 1.6950 -0.0000
C 3.7860 2.8990 0.0030
C 5.1680 2.8540 0.0040
C 5.8400 1.6700 0.0050
C 5.1610 0.4690 0.0040
C 5.8370 -0.7330 0.0040
C 5.1620 -1.9150 0.0030
C 3.7790 -1.9570 0.0010
C -0.4340 0.4770 -0.0030
C -1.1100 1.6790 -0.0040
C -0.4350 2.8610 -0.0030
C 0.9480 2.9030 -0.0010
C -1.1130 -0.7240 -0.0050
C -0.4410 -1.9080 -0.0040
C 0.9410 -1.9530 -0.0020
O 7.1050 1.8990 0.0060
B 7.2340 3.2390 0.0070
O 6.0180 3.8180 0.0060
O 6.0100 -2.8820 0.0040
B 7.2260 -2.3060 0.0050
O 7.1020 -0.9660 0.0060
O -1.2910 -2.8730 -0.0050
B -2.5070 -2.2930 -0.0070
O -2.3780 -0.9540 -0.0060
O -1.2820 3.8280 -0.0040
B -2.4990 3.2520 -0.0050
O -2.3750 1.9120 -0.0050
H 3.3050 3.8340 0.0020
H 3.2960 -2.8910 0.0000
H 1.4310 3.8370 -0.0000
H 1.4220 -2.8890 -0.0020
O 8.436170896981892 4.884966568448385 0.33430000000000004
C 8.296162170825996 3.592926338192297 -0.0058
O 9.227816510768871 2.901165511847235 -0.29219999999999996
H 9.43611857813196 5.054323956721245 0.5271
X 9.216493825820434 4.2983396843805295 0.009941548350901388
O 9.259045845739019 -2.451414576722289 0.33230000000000004
C 8.089657087015519 -3.0184245686722693 -0.007800000000000001
O 7.997767529379266 -4.17517396210086 -0.29419999999999996
H 9.933252105537159 -3.2090577706130556 0.5251
X 9.147531885412322 -3.472901622667602 0.006313185675490769
O -3.7236705753194337 -3.9282778116124124 0.32030000000000003
C -3.572248599138442 -2.637525401144222 -0.019799999999999998
O -4.497752951095686 -1.9375578701056737 -0.30619999999999997
H -4.725075941769621 -4.088791306511648 0.5131000000000001
X -4.433735213887078 -3.4509238704505676 -0.010207636661872199
O -4.531149987731921 3.4094396308467285 0.32230000000000003
C -3.358427234372927 3.9695215389227707 -0.017799999999999996
O -3.259695898690431 5.1257070661433595 -0.30419999999999997
H -5.20086219466824 4.171058203283408 0.5151000000000001
X -4.415908307127247 4.426842224063836 -0.006765824451201546
0 5 A
0 13 A
0 1 A
1 19 A
1 2 S
2 3 A
2 12 A
3 9 A
3 4 A
4 6 A
4 5 S
5 16 A
6 7 A
6 32 S
7 22 S
7 8 A
8 9 A
8 20 S
9 10 A
10 25 S
10 11 A
11 12 A
11 23 S
12 33 S
13 14 A
13 17 A
14 15 A
14 31 S
15 16 A
15 29 S
16 34 S
17 28 S
17 18 A
18 26 S
18 19 A
19 35 S
20 21 S
21 22 S
23 24 S
24 25 S
26 27 S
27 28 S
29 30 S
30 31 S
36 37 S
37 38 A
36 39 S
21 37 S
40 39 S
41 42 S
42 43 A
41 44 S
24 42 S
45 44 S
46 47 S
47 48 A
46 49 S
27 47 S
50 49 S
51 52 S
52 53 A
51 54 S
30 52 S
55 54 S
