52
mol to xyz file
C 0.9680 0.4750 -0.0020
C 1.6620 -0.7480 -0.0010
C 3.0620 -0.7500 0.0010
C 3.7590 0.4710 0.0020
C 3.0650 1.6930 0.0010
C 1.6650 1.6950 -0.0000
C 3.7860 2.8990 0.0030
C 5.1680 2.8540 0.0040
C 5.8400 1.6700 0.0050
C 5.1610 0.4690 0.0040
C 5.8370 -0.7330 0.0040
C 5.1620 -1.9150 0.0030
C 3.7790 -1.9570 0.0010
C -0.4340 0.4770 -0.0030
C -1.1100 1.6790 -0.0040
C -0.4350 2.8610 -0.0030
C 0.9480 2.9030 -0.0010
C -1.1130 -0.7240 -0.0050
C -0.4410 -1.9080 -0.0040
C 0.9410 -1.9530 -0.0020
O 7.1050 1.8990 0.0060
B 7.2340 3.2390 0.0070
O 6.0180 3.8180 0.0060
O 6.0100 -2.8820 0.0040
B 7.2260 -2.3060 0.0050
O 7.1020 -0.9660 0.0060
O -1.2910 -2.8730 -0.0050
B -2.5070 -2.2930 -0.0070
O -2.3780 -0.9540 -0.0060
O -1.2820 3.8280 -0.0040
B -2.4990 3.2520 -0.0050
O -2.3750 1.9120 -0.0050
H 3.3050 3.8340 0.0020
H 3.2960 -2.8910 0.0000
H 1.4310 3.8370 -0.0000
H 1.4220 -2.8890 -0.0020
N 7.942226915185233 3.9828840881529914 0.0233
H 8.378970689229348 3.9722175126152326 -0.9064000000000001
H 8.668109942628742 3.6622341225059536 0.6757
X 9.216493825820434 4.2983396843805295 0.009941548350901388
N 8.224582913117535 -2.54637692407903 0.0213
H 8.434110361050797 -2.929726827643091 -0.9084000000000001
H 8.310642135734026 -3.335247243081238 0.6737
X 9.147531885412322 -3.472901622667602 0.006313185675490769
N -3.223818003615787 -3.0286091691192265 0.0093
H -3.660408453128369 -3.0128713359010932 -0.9204
H -3.945928320523741 -2.699551028033045 0.6617000000000001
X -4.433735213887078 -3.4509238704505676 -0.010207636661872199
N -3.4961616613499262 3.498206257300369 0.011300000000000001
H -3.703446114020725 3.882773618995258 -0.9184
H -3.577611061563394 4.287565849124569 0.6637000000000001
X -4.415908307127247 4.426842224063836 -0.006765824451201546
0 5 A
0 13 A
0 1 A
1 19 A
1 2 S
2 3 A
2 12 A
3 9 A
3 4 A
4 6 A
4 5 S
5 16 A
6 7 A
6 32 S
7 22 S
7 8 A
8 9 A
8 20 S
9 10 A
10 25 S
10 11 A
11 12 A
11 23 S
12 33 S
13 14 A
13 17 A
14 15 A
14 31 S
15 16 A
15 29 S
16 34 S
17 28 S
17 18 A
18 26 S
18 19 A
19 35 S
20 21 S
21 22 S
23 24 S
24 25 S
26 27 S
27 28 S
29 30 S
30 31 S
36 37 S
36 38 S
21 37 S
39 38 S
40 41 S
40 42 S
24 41 S
43 42 S
44 45 S
44 46 S
27 45 S
47 46 S
48 49 S
48 50 S
30 49 S
51 50 S
