42
mol to xyz file
C 0.4815 1.2638 -1.8516
C 0.6122 0.0808 -1.0810
C 0.4642 0.1806 0.2934
C 0.1973 1.3871 0.9139
C 0.0624 2.5654 0.1969
C 0.2066 2.5064 -1.2125
C 0.0501 1.4869 2.2884
C 0.1816 0.3038 3.0590
C 0.4566 -0.9388 2.4198
C 0.5999 -0.9976 1.0104
C -0.1925 3.4889 1.2114
C -0.1998 2.8501 2.4503
C 0.8633 -1.2822 -1.2427
C 0.8560 -1.9210 -0.0038
O 0.5803 1.4309 -3.1866
B 0.3566 2.8417 -3.3863
O 0.1230 3.4980 -2.1234
O 1.0960 -3.2410 -0.1209
B 1.2600 -3.4022 -1.5495
O 1.1085 -2.1441 -2.2480
O 0.5422 -1.9299 3.3309
B 0.3099 -1.2735 4.5940
O 0.0848 0.1371 4.3941
O -0.4428 3.7127 3.4557
B -0.5931 4.9711 2.7576
O -0.4304 4.8094 1.3290
N 0.07110169404372824 3.828330436027644 -3.3699999999999997
H 0.3004524365258656 4.200159882041394 -4.2997
H 0.7139172138651924 4.293637622171014 -2.7175999999999996
X 0.283008906914831 3.864100823153763 -5.383399965305242
N 1.6394971771766775 -4.356626944566703 -1.5332000000000001
H 1.4471482742477644 -4.748877884071051 -2.4629000000000003
H 1.0446506660756645 -4.8818699342685665 -0.8808000000000001
X 1.615100727545032 -5.431387749758219 -2.452002237818269
N 0.4599850535179051 -2.2895823670896607 4.6103000000000005
H 0.1826682503422083 -2.627153530959461 3.6806000000000005
H -0.23961664486845508 -2.664122129484684 5.262700000000001
X 0.22197970096841105 -2.3121238940184505 6.582632224955779
N -1.0530742607799592 5.889453188822214 2.7739000000000003
H -0.8950838959945548 6.296758902795116 1.8442000000000003
H -0.5054788433098125 6.463789178261929 3.4263000000000003
X -1.0982522271802806 6.862257544049697 3.865281843115204
0 14 S
0 1 A
0 5 A
1 2 A
1 12 A
2 3 A
2 9 A
3 6 A
3 4 A
4 5 A
4 10 A
5 16 S
6 7 A
6 11 A
7 22 S
7 8 A
8 9 A
8 20 S
9 13 A
10 11 A
10 25 S
11 23 S
12 13 A
12 19 S
13 17 S
14 15 S
15 16 S
17 18 S
18 19 S
20 21 S
21 22 S
23 24 S
24 25 S
26 27 S
26 28 S
15 27 S
29 28 S
30 31 S
30 32 S
18 31 S
33 32 S
34 35 S
34 36 S
21 35 S
37 36 S
38 39 S
38 40 S
24 39 S
41 40 S
