46
mol to xyz file
C 0.4815 1.2638 -1.8516
C 0.6122 0.0808 -1.0810
C 0.4642 0.1806 0.2934
C 0.1973 1.3871 0.9139
C 0.0624 2.5654 0.1969
C 0.2066 2.5064 -1.2125
C 0.0501 1.4869 2.2884
C 0.1816 0.3038 3.0590
C 0.4566 -0.9388 2.4198
C 0.5999 -0.9976 1.0104
C -0.1925 3.4889 1.2114
C -0.1998 2.8501 2.4503
C 0.8633 -1.2822 -1.2427
C 0.8560 -1.9210 -0.0038
O 0.5803 1.4309 -3.1866
B 0.3566 2.8417 -3.3863
O 0.1230 3.4980 -2.1234
O 1.0960 -3.2410 -0.1209
B 1.2600 -3.4022 -1.5495
O 1.1085 -2.1441 -2.2480
O 0.5422 -1.9299 3.3309
B 0.3099 -1.2735 4.5940
O 0.0848 0.1371 4.3941
O -0.4428 3.7127 3.4557
B -0.5931 4.9711 2.7576
O -0.4304 4.8094 1.3290
O -1.0398589194031438 4.326396365058999 -3.059
C 0.20430778856427387 3.9508705965882864 -3.3991000000000002
O 1.0557911211097493 4.739216323028946 -3.6855
H -1.022194091377299 5.340430508394823 -2.8662
X 0.283008906914831 3.864100823153763 -5.383399965305242
O 2.5356283445216548 -4.9919147972680324 -1.2222
C 1.3247716298142587 -4.519901644434329 -1.5623
O 0.4140431338419557 -5.238988882969423 -1.8487
H 2.43843374972947 -6.001434733050969 -1.0293999999999999
X 1.615100727545032 -5.431387749758219 -2.452002237818269
O 1.5933059588640486 -2.856942438092479 4.9213000000000005
C 0.3801499371958188 -2.390870697809811 4.581200000000001
O -0.5270425782273958 -3.114413778738722 4.2948
H 1.5010612999437165 -3.866926701782103 5.1141000000000005
X 0.22197970096841105 -2.3121238940184505 6.582632224955779
O -2.0597020001661566 6.386550240421269 3.0848999999999998
C -0.7988356810365119 6.071611317319564 2.7447999999999997
O 0.013540419377022994 6.900199225436077 2.4584
H -2.0910801043166174 7.400252713822574 3.2777
X -1.0982522271802806 6.862257544049697 3.865281843115204
0 14 S
0 1 A
0 5 A
1 2 A
1 12 A
2 3 A
2 9 A
3 6 A
3 4 A
4 5 A
4 10 A
5 16 S
6 7 A
6 11 A
7 22 S
7 8 A
8 9 A
8 20 S
9 13 A
10 11 A
10 25 S
11 23 S
12 13 A
12 19 S
13 17 S
14 15 S
15 16 S
17 18 S
18 19 S
20 21 S
21 22 S
23 24 S
24 25 S
26 27 S
27 28 A
26 29 S
15 27 S
30 29 S
31 32 S
32 33 A
31 34 S
18 32 S
35 34 S
36 37 S
37 38 A
36 39 S
21 37 S
40 39 S
41 42 S
42 43 A
41 44 S
24 42 S
45 44 S
