24
mol to xyz file
C 3.8259 9.0067 1.6929
O 2.4542 9.1780 1.6933
C 4.4899 7.7774 1.6923
C 5.8865 7.8164 1.6922
O 6.7204 6.7138 1.6913
B 8.0284 7.3809 1.6918
C 6.5812 9.0188 1.6927
O 7.9530 8.8471 1.6924
C 5.9170 10.2482 1.6921
C 4.5202 10.2092 1.6924
O 3.6860 11.3118 1.6920
B 2.3784 10.6443 1.6922
H 3.9506 6.8432 1.6918
H 6.4568 11.1826 1.6908
O 10.062066753838135 7.244443617468948 2.0191
C 8.89518736183865 6.672287271242751 1.679
O 8.808394868933307 5.515144275249915 1.3926
H 10.739604342112766 6.489778058115006 2.2119
X 9.965237007780722 6.237972895591636 1.6917229875196924
O 0.3485399434605605 10.828931960574817 2.0195
C 1.5286559744127253 11.373263250773817 1.6794
O 1.642857482380292 12.528023340826262 1.393
H -0.3109156861634901 11.599448386458878 2.2123
X 0.420517938557615 11.75093974868386 1.6920068923838993
0 9 A
0 1 S
0 2 A
1 11 S
2 3 A
2 12 S
3 6 A
3 4 S
4 5 S
5 7 S
6 8 A
6 7 S
8 9 A
8 13 S
9 10 S
10 11 S
14 15 S
15 16 A
14 17 S
5 15 S
18 17 S
19 20 S
20 21 A
19 22 S
11 20 S
23 22 S
