22
mol to xyz file
C 3.8259 9.0067 1.6929
O 2.4542 9.1780 1.6933
C 4.4899 7.7774 1.6923
C 5.8865 7.8164 1.6922
O 6.7204 6.7138 1.6913
B 8.0284 7.3809 1.6918
C 6.5812 9.0188 1.6927
O 7.9530 8.8471 1.6924
C 5.9170 10.2482 1.6921
C 4.5202 10.2092 1.6924
O 3.6860 11.3118 1.6920
B 2.3784 10.6443 1.6922
H 3.9506 6.8432 1.6918
H 6.4568 11.1826 1.6908
N 9.027950782974672 7.144580021465134 1.7081
H 9.2390331792936 6.762084110422599 0.7783999999999999
H 9.11721267602703 6.35606566874306 2.3605
X 9.965237007780722 6.237972895591636 1.6917229875196924
N 1.3846373205175522 10.903885509741714 1.7085
H 1.1825400339313068 11.291203966253248 0.7787999999999998
H 1.3138039813112043 11.694268459998664 2.3609
X 0.420517938557615 11.75093974868386 1.6920068923838993
0 9 A
0 1 S
0 2 A
1 11 S
2 3 A
2 12 S
3 6 A
3 4 S
4 5 S
5 7 S
6 8 A
6 7 S
8 9 A
8 13 S
9 10 S
10 11 S
14 15 S
14 16 S
5 15 S
17 16 S
18 19 S
18 20 S
11 19 S
21 20 S
