72
mol to xyz file
C -0.6991 19.9802 1.7515
C -1.5431 21.2741 1.6841
C -3.0869 21.1903 1.6668
C -3.7500 19.8046 1.7176
C -2.9354 18.5556 1.7820
C -1.3991 18.6024 1.8010
O -3.7994 17.3366 1.8222
B -5.1157 18.0251 1.7739
O -5.2148 19.5067 1.7098
C 0.8448 20.0641 1.7685
C 1.5447 21.4419 1.7184
C 1.6885 18.7701 1.8358
C 3.2207 18.8899 1.8513
C 3.8965 20.2199 1.8030
C 3.0886 21.5258 1.7354
O 5.3847 20.0823 1.8286
B 5.4454 18.5987 1.8936
O 4.2106 17.7716 1.9130
C -0.8430 22.6518 1.6341
C 0.7009 22.7358 1.6511
C 1.4008 24.1135 1.6011
C 0.5317 25.3794 1.5347
C -0.9586 25.2984 1.5183
C -1.6868 23.9457 1.5668
O -1.5827 26.6551 1.4508
B -0.3269 27.4502 1.4326
O 1.0068 26.7956 1.4794
C 3.7515 22.9114 1.6848
C -3.2190 23.8259 1.5515
C 0.9602 17.4174 1.8847
C 2.9371 24.1604 1.6199
C -3.8949 22.4960 1.5994
C -0.5299 17.3363 1.8679
O 3.8011 25.3795 1.5794
O -5.3832 22.6335 1.5737
O -1.0050 15.9201 1.9230
B 5.1174 24.6907 1.6276
B -5.4438 24.1172 1.5091
B 0.3287 15.2659 1.9702
O 5.2162 23.2090 1.6922
O -4.2089 24.9443 1.4900
O 1.5844 16.0609 1.9520
O -6.244809012869933 16.328181131268824 2.1012
C -6.161384509195304 17.625104703491427 1.7611
O -7.122372926215632 18.27550005429951 1.4747000000000001
H -7.236402443094633 16.11529675153369 2.294
X -7.006300589492785 16.80549011196151 1.7995450316118404
O 7.482871119612364 18.542733521233334 2.2209
C 6.339518815041935 17.924901903692206 1.8808
O 6.29853169775023 16.76523259470101 1.5944
H 8.189708350579457 17.815438244939877 2.4137
X 7.4467436556626385 17.573105757183857 1.9646762306106809
O -1.3021540417753117 29.239976624051426 1.7599000000000002
C -0.1935275497881662 28.56180429988575 1.4198000000000002
O 0.8297495709527007 29.108994197607085 1.1334000000000002
H -1.0284343275976233 30.216529135732433 1.9527
X -0.43880020260651764 29.69514128187059 1.3332223884486787
O 6.245894651644079 26.388027496746197 1.9549
C 6.162939641766048 25.09107380970254 1.6148
O 7.124163439938558 24.441026380796913 1.3284
H 7.237410952423733 26.601270820881396 2.1477
X 7.007667433138468 25.910769477182495 1.6015090790938251
O -7.481300881126256 24.17207230093347 1.8364000000000003
C -6.338280531488584 24.79051783638034 1.4963000000000002
O -6.29791618971633 25.950208989193577 1.2099000000000002
H -8.188528584785438 24.898987884187093 2.0292000000000003
X -7.445507730015635 25.1420835015118 1.4382336557698374
O 1.3020757035290493 13.475101142009711 2.2975
C 0.1941613479375054 14.154436243910219 1.9574
O -0.8296893114087964 13.608320251326091 1.671
H 1.0273315586561842 12.498836349620843 2.4903
X 0.4584312068913602 13.02187837762309 2.0700701349363144
0 9 A
0 1 A
0 5 A
1 18 A
1 2 A
2 3 A
3 8 S
3 4 A
4 5 A
4 6 S
6 7 S
7 8 S
9 10 A
9 11 A
10 19 A
10 14 A
11 12 A
12 17 S
12 13 A
13 15 S
13 14 A
15 16 S
16 17 S
18 19 A
18 23 A
19 20 A
20 21 A
21 22 A
21 26 S
22 24 S
22 23 A
24 25 S
25 26 S
27 39 S
27 30 A
28 40 S
28 31 A
29 41 S
29 32 A
30 33 S
31 34 S
32 35 S
33 36 S
34 37 S
35 38 S
36 39 S
37 40 S
38 41 S
2 31 A
5 32 A
11 29 A
14 27 A
20 30 A
23 28 A
42 43 S
43 44 A
42 45 S
7 43 S
46 45 S
47 48 S
48 49 A
47 50 S
16 48 S
51 50 S
52 53 S
53 54 A
52 55 S
25 53 S
56 55 S
57 58 S
58 59 A
57 60 S
36 58 S
61 60 S
62 63 S
63 64 A
62 65 S
37 63 S
66 65 S
67 68 S
68 69 A
67 70 S
38 68 S
71 70 S
