66
mol to xyz file
C -0.6991 19.9802 1.7515
C -1.5431 21.2741 1.6841
C -3.0869 21.1903 1.6668
C -3.7500 19.8046 1.7176
C -2.9354 18.5556 1.7820
C -1.3991 18.6024 1.8010
O -3.7994 17.3366 1.8222
B -5.1157 18.0251 1.7739
O -5.2148 19.5067 1.7098
C 0.8448 20.0641 1.7685
C 1.5447 21.4419 1.7184
C 1.6885 18.7701 1.8358
C 3.2207 18.8899 1.8513
C 3.8965 20.2199 1.8030
C 3.0886 21.5258 1.7354
O 5.3847 20.0823 1.8286
B 5.4454 18.5987 1.8936
O 4.2106 17.7716 1.9130
C -0.8430 22.6518 1.6341
C 0.7009 22.7358 1.6511
C 1.4008 24.1135 1.6011
C 0.5317 25.3794 1.5347
C -0.9586 25.2984 1.5183
C -1.6868 23.9457 1.5668
O -1.5827 26.6551 1.4508
B -0.3269 27.4502 1.4326
O 1.0068 26.7956 1.4794
C 3.7515 22.9114 1.6848
C -3.2190 23.8259 1.5515
C 0.9602 17.4174 1.8847
C 2.9371 24.1604 1.6199
C -3.8949 22.4960 1.5994
C -0.5299 17.3363 1.8679
O 3.8011 25.3795 1.5794
O -5.3832 22.6335 1.5737
O -1.0050 15.9201 1.9230
B 5.1174 24.6907 1.6276
B -5.4438 24.1172 1.5091
B 0.3287 15.2659 1.9702
O 5.2162 23.2090 1.6922
O -4.2089 24.9443 1.4900
O 1.5844 16.0609 1.9520
N -5.781393809928732 17.24292313290243 1.7902
H -6.2180537020192235 17.229246925843395 0.8604999999999999
H -6.524009883912736 17.522644309541928 2.4426
X -7.006300589492785 16.80549011196151 1.7995450316118404
N 6.454992354156281 18.40982920175639 1.9099
H 6.683895875622848 18.03772427319429 0.9801999999999998
H 6.581378066585926 17.626407717692 2.5623
X 7.4467436556626385 17.573105757183857 1.9646762306106809
N -0.6713921825202951 28.41781254445279 1.4489
H -0.4648878966957378 28.802799401288308 0.5192
H -0.057814602241922364 28.921047204407508 2.1013
X -0.43880020260651764 29.69514128187059 1.3332223884486787
N 5.782671947667522 25.4732357088636 1.6439
H 6.219324401791117 25.487147369722123 0.7141999999999998
H 6.525438744969567 25.193915006398385 2.2963
X 7.007667433138468 25.910769477182495 1.6015090790938251
N -6.4534903234185395 24.305546358592263 1.5254
H -6.682587097063357 24.67753233723331 0.5957
H -6.580282952673067 25.088902088236672 2.1778
X -7.445507730015635 25.1420835015118 1.4382336557698374
N 0.6721827857150251 14.29792868021958 1.9865
H 0.46527707507800226 13.91315741452295 1.0568
H 0.05808067085549934 13.795334248769073 2.6389
X 0.4584312068913602 13.02187837762309 2.0700701349363144
0 9 A
0 1 A
0 5 A
1 18 A
1 2 A
2 3 A
3 8 S
3 4 A
4 5 A
4 6 S
6 7 S
7 8 S
9 10 A
9 11 A
10 19 A
10 14 A
11 12 A
12 17 S
12 13 A
13 15 S
13 14 A
15 16 S
16 17 S
18 19 A
18 23 A
19 20 A
20 21 A
21 22 A
21 26 S
22 24 S
22 23 A
24 25 S
25 26 S
27 39 S
27 30 A
28 40 S
28 31 A
29 41 S
29 32 A
30 33 S
31 34 S
32 35 S
33 36 S
34 37 S
35 38 S
36 39 S
37 40 S
38 41 S
2 31 A
5 32 A
11 29 A
14 27 A
20 30 A
23 28 A
42 43 S
42 44 S
7 43 S
45 44 S
46 47 S
46 48 S
16 47 S
49 48 S
50 51 S
50 52 S
25 51 S
53 52 S
54 55 S
54 56 S
36 55 S
57 56 S
58 59 S
58 60 S
37 59 S
61 60 S
62 63 S
62 64 S
38 63 S
65 64 S
