78
mol to xyz file
C 12.1200 4.8940 1.6700
C 9.9890 6.0480 1.6700
C 10.7190 7.2300 1.6700
C 10.2500 8.5880 1.6700
O 10.3400 3.6580 1.6700
H 8.9280 6.0390 1.6700
C 17.9710 12.1070 1.6700
C 16.8040 9.9800 1.6700
C 15.6250 10.7150 1.6700
C 14.2520 10.2450 1.6700
O 19.1950 10.3180 1.6700
H 16.8090 8.9200 1.6700
N 9.0210 8.9300 1.6700
C 10.7300 17.9570 1.6700
C 12.8610 16.8030 1.6700
C 12.1310 15.6210 1.6700
C 12.6000 14.2620 1.6700
O 12.5100 19.1930 1.6700
H 13.9220 16.8120 1.6700
C 4.8790 10.7440 1.6700
C 6.0460 12.8710 1.6700
C 7.2250 12.1350 1.6700
C 8.5980 12.6060 1.6700
O 3.6550 12.5320 1.6700
H 6.0410 13.9310 1.6700
N 13.8290 13.9210 1.6700
C 10.7420 4.8800 1.6700
C 12.8500 6.0770 1.6700
C 12.0960 7.2440 1.6700
C 12.5370 8.6120 1.6700
O 12.5470 3.6810 1.6700
H 13.9110 6.0890 1.6700
C 4.8740 12.1230 1.6700
C 6.0570 10.0050 1.6700
C 7.2300 10.7500 1.6700
C 8.6060 10.2900 1.6700
O 3.6630 10.3250 1.6700
H 6.0610 8.9450 1.6700
N 13.8920 9.0170 1.6700
C 12.1080 17.9710 1.6700
C 10.0000 16.7740 1.6700
C 10.7540 15.6070 1.6700
C 10.3130 14.2390 1.6700
O 10.3030 19.1700 1.6700
H 8.9390 16.7620 1.6700
C 17.9760 10.7280 1.6700
C 16.7930 12.8460 1.6700
C 15.6200 12.1010 1.6700
C 14.2440 12.5610 1.6700
O 19.1870 12.5250 1.6700
H 16.7900 13.9060 1.6700
N 8.9580 13.8340 1.6700
B 11.4520 2.8990 1.6700
N 11.3830 9.5240 1.6700
B 11.3980 19.9520 1.6700
N 11.4670 13.3270 1.6700
B 19.9610 11.4250 1.6700
N 13.4230 11.4000 1.6700
H 10.3940 11.4520 1.6700
B 2.8890 11.4260 1.6700
N 9.4270 11.4500 1.6700
H 12.4560 11.3990 1.6700
N 11.744271696368878 1.9143548073028247 1.6863
H 11.517481584174813 1.5409580410996286 0.7565999999999998
H 11.1046689495122 1.4446411751678874 2.3387
X 11.400349831784904 0.6511075203195134 1.67
N 11.105728248883938 20.9366451764466 1.6863
H 11.332518340316799 21.310041955259535 0.7565999999999998
H 11.745330969624103 21.40635884414404 2.3387
X 11.449650084655147 22.199892479415887 1.67
N 20.944203789632137 11.722084513317341 1.6863
H 21.318705414607265 11.49712355472455 0.7565999999999998
H 21.417040368366045 11.084786984833812 2.3387
X 22.208499996596796 11.363698957357306 1.67
N 1.9058012531737978 11.128898797983943 1.6863
H 1.531295809801826 11.353853399814541 0.7565999999999998
H 1.4329538571232145 11.76618830052434 2.3387
X 0.6415000018592181 11.487574683692504 1.67
0 26 A
0 30 S
0 27 A
1 5 S
1 2 A
1 26 A
2 28 A
2 3 S
3 12 A
3 53 A
4 26 S
4 52 S
6 45 A
6 49 S
6 46 A
7 11 S
7 8 A
7 45 A
8 47 A
8 9 A
9 38 A
9 57 A
10 45 S
10 56 S
12 35 A
13 39 A
13 43 S
13 40 A
14 18 S
14 39 A
14 15 A
15 41 A
15 16 S
16 25 A
16 55 A
17 39 S
17 54 S
19 32 A
19 36 S
19 33 A
20 24 S
20 32 A
20 21 A
21 34 A
21 22 S
22 51 A
22 60 A
23 32 S
23 59 S
25 48 A
27 31 S
27 28 A
28 29 S
29 38 A
29 53 A
30 52 S
33 37 S
33 34 A
34 35 S
35 60 A
36 59 S
40 44 S
40 41 A
41 42 S
42 51 A
42 55 A
43 54 S
46 50 S
46 47 A
47 48 A
48 57 A
49 56 S
57 61 S
58 60 S
62 63 S
62 64 S
52 63 S
65 64 S
66 67 S
66 68 S
54 67 S
69 68 S
70 71 S
70 72 S
56 71 S
73 72 S
74 75 S
74 76 S
59 75 S
77 76 S
