82
mol to xyz file
C 12.1200 4.8940 1.6700
C 9.9890 6.0480 1.6700
C 10.7190 7.2300 1.6700
C 10.2500 8.5880 1.6700
O 10.3400 3.6580 1.6700
H 8.9280 6.0390 1.6700
C 17.9710 12.1070 1.6700
C 16.8040 9.9800 1.6700
C 15.6250 10.7150 1.6700
C 14.2520 10.2450 1.6700
O 19.1950 10.3180 1.6700
H 16.8090 8.9200 1.6700
N 9.0210 8.9300 1.6700
C 10.7300 17.9570 1.6700
C 12.8610 16.8030 1.6700
C 12.1310 15.6210 1.6700
C 12.6000 14.2620 1.6700
O 12.5100 19.1930 1.6700
H 13.9220 16.8120 1.6700
C 4.8790 10.7440 1.6700
C 6.0460 12.8710 1.6700
C 7.2250 12.1350 1.6700
C 8.5980 12.6060 1.6700
O 3.6550 12.5320 1.6700
H 6.0410 13.9310 1.6700
N 13.8290 13.9210 1.6700
C 10.7420 4.8800 1.6700
C 12.8500 6.0770 1.6700
C 12.0960 7.2440 1.6700
C 12.5370 8.6120 1.6700
O 12.5470 3.6810 1.6700
H 13.9110 6.0890 1.6700
C 4.8740 12.1230 1.6700
C 6.0570 10.0050 1.6700
C 7.2300 10.7500 1.6700
C 8.6060 10.2900 1.6700
O 3.6630 10.3250 1.6700
H 6.0610 8.9450 1.6700
N 13.8920 9.0170 1.6700
C 12.1080 17.9710 1.6700
C 10.0000 16.7740 1.6700
C 10.7540 15.6070 1.6700
C 10.3130 14.2390 1.6700
O 10.3030 19.1700 1.6700
H 8.9390 16.7620 1.6700
C 17.9760 10.7280 1.6700
C 16.7930 12.8460 1.6700
C 15.6200 12.1010 1.6700
C 14.2440 12.5610 1.6700
O 19.1870 12.5250 1.6700
H 16.7900 13.9060 1.6700
N 8.9580 13.8340 1.6700
B 11.4520 2.8990 1.6700
N 11.3830 9.5240 1.6700
B 11.3980 19.9520 1.6700
N 11.4670 13.3270 1.6700
B 19.9610 11.4250 1.6700
N 13.4230 11.4000 1.6700
H 10.3940 11.4520 1.6700
B 2.8890 11.4260 1.6700
N 9.4270 11.4500 1.6700
H 12.4560 11.3990 1.6700
O 12.34069985659303 1.0647063008090751 1.9973
C 11.265712679055467 1.7950301797352846 1.6572
O 10.217479929017017 1.297314445860183 1.3708
H 12.020672534279083 0.10233433375446133 2.1901
X 11.400349831784904 0.6511075203195134 1.67
O 10.509300041621799 21.786293649876864 1.9973
C 11.584287259685116 21.05596983060182 1.6572
O 12.63251998210526 21.55368562264348 1.3708
H 10.829327310533609 22.748665634689832 2.1901
X 11.449650084655147 22.199892479415887 1.67
O 21.80311462836102 12.297372916806994 1.9973
C 21.063271702613818 11.228914754209216 1.6572
O 21.551657578875517 10.176302724129712 1.3708
H 22.76260620696207 11.968810593048367 2.1901
X 22.208499996596796 11.363698957357306 1.67
O 1.046900576896607 10.553594976285586 1.9973
C 1.7867248798961404 11.622066033774395 1.6572
O 1.2983206572626664 12.674669551398098 1.3708
H 0.08740327178157514 10.882140576586353 2.1901
X 0.6415000018592181 11.487574683692504 1.67
0 26 A
0 30 S
0 27 A
1 5 S
1 2 A
1 26 A
2 28 A
2 3 S
3 12 A
3 53 A
4 26 S
4 52 S
6 45 A
6 49 S
6 46 A
7 11 S
7 8 A
7 45 A
8 47 A
8 9 A
9 38 A
9 57 A
10 45 S
10 56 S
12 35 A
13 39 A
13 43 S
13 40 A
14 18 S
14 39 A
14 15 A
15 41 A
15 16 S
16 25 A
16 55 A
17 39 S
17 54 S
19 32 A
19 36 S
19 33 A
20 24 S
20 32 A
20 21 A
21 34 A
21 22 S
22 51 A
22 60 A
23 32 S
23 59 S
25 48 A
27 31 S
27 28 A
28 29 S
29 38 A
29 53 A
30 52 S
33 37 S
33 34 A
34 35 S
35 60 A
36 59 S
40 44 S
40 41 A
41 42 S
42 51 A
42 55 A
43 54 S
46 50 S
46 47 A
47 48 A
48 57 A
49 56 S
57 61 S
58 60 S
62 63 S
63 64 A
62 65 S
52 63 S
66 65 S
67 68 S
68 69 A
67 70 S
54 68 S
71 70 S
72 73 S
73 74 A
72 75 S
56 73 S
76 75 S
77 78 S
78 79 A
77 80 S
59 78 S
81 80 S
