133
mol to xyz file
C 9.0622 44.5208 2.5000
C 15.9378 44.5208 2.5000
C 15.9378 30.4790 2.5000
C 9.0622 30.4790 2.5000
C 19.5209 40.9377 2.5000
C 5.4791 40.9377 2.5000
C 5.4791 34.0621 2.5000
C 19.5209 34.0621 2.5000
C 9.5014 43.1737 2.5000
C 15.4986 43.1737 2.5000
C 15.4986 31.8261 2.5000
C 9.5014 31.8261 2.5000
C 18.1738 40.4985 2.5000
C 6.8262 40.4985 2.5000
C 6.8262 34.5013 2.5000
C 18.1738 34.5013 2.5000
C 10.8829 42.8688 2.5000
C 14.1171 42.8688 2.5000
C 14.1171 32.1309 2.5000
C 10.8829 32.1309 2.5000
C 17.8690 39.1170 2.5000
C 7.1310 39.1170 2.5000
C 7.1310 35.8828 2.5000
C 17.8690 35.8828 2.5000
C 11.8039 43.9325 2.5000
C 13.1961 43.9325 2.5000
C 13.1961 31.0673 2.5000
C 11.8039 31.0673 2.5000
C 18.9326 38.1960 2.5000
C 6.0674 38.1960 2.5000
C 6.0674 36.8038 2.5000
C 18.9326 36.8038 2.5000
C 11.3682 45.2624 2.5000
C 13.6318 45.2624 2.5000
C 13.6318 29.7373 2.5000
C 11.3682 29.7373 2.5000
C 20.2625 38.6316 2.5000
C 4.7375 38.6316 2.5000
C 4.7375 36.3681 2.5000
C 20.2625 36.3681 2.5000
C 9.9981 45.5729 2.5000
C 15.0019 45.5729 2.5000
C 15.0019 29.4269 2.5000
C 9.9981 29.4269 2.5000
C 20.5730 40.0018 2.5000
C 4.4270 40.0018 2.5000
C 4.4270 34.9980 2.5000
C 20.5730 34.9980 2.5000
C 8.6203 42.2230 2.5000
C 16.3797 42.2230 2.5000
C 16.3797 32.7768 2.5000
C 8.6203 32.7768 2.5000
C 17.2231 41.3796 2.5000
C 7.7769 41.3796 2.5000
C 7.7769 33.6201 2.5000
C 17.2231 33.6201 2.5000
H 7.9457 44.7511 2.5000
H 17.0543 44.7511 2.5000
H 17.0543 30.2487 2.5000
H 7.9457 30.2487 2.5000
H 19.7512 42.0541 2.5000
H 5.2488 42.0541 2.5000
H 5.2488 32.9456 2.5000
H 19.7512 32.9456 2.5000
H 11.2268 41.7819 2.5000
H 13.7733 41.7819 2.5000
H 13.7733 33.2178 2.5000
H 11.2268 33.2178 2.5000
H 16.7821 38.7732 2.5000
H 8.2179 38.7732 2.5000
H 8.2179 36.2266 2.5000
H 16.7821 36.2266 2.5000
H 9.6393 46.6549 2.5000
H 15.3607 46.6549 2.5000
H 15.3352 28.4602 2.5109
H 9.6648 28.4602 2.4891
H 21.5403 40.3346 2.5104
H 3.4598 40.3346 2.4896
H 3.4598 34.6652 2.5104
H 21.5403 34.6652 2.4896
C 21.1928 37.4999 2.5000
C 3.8072 37.4999 2.5000
C 12.5000 28.6198 2.5000
C 12.5000 46.3795 2.5000
C 2.5371 37.1976 1.4796
C 22.4628 37.1976 3.5205
O 1.1302 36.7914 1.7206
O 23.8698 36.7914 3.2794
C 22.4628 37.8022 1.4796
C 2.5371 37.8022 3.5205
O 23.8698 38.2084 1.7206
O 1.1302 38.2084 3.2794
C 12.8349 27.4344 1.4572
C 12.1651 27.4344 3.5428
O 13.2448 26.0688 1.7167
O 11.7552 26.0688 3.2833
C 12.1693 47.5647 1.4564
C 12.8306 47.5647 3.5436
O 11.7583 48.9304 1.7138
O 13.2417 48.9304 3.2862
B 0.0000 37.4999 2.5000
B 12.5000 49.9996 2.5000
H 2.9211 36.4423 0.8136
H 22.0789 36.4423 4.1864
H 2.3705 38.1665 1.0415
H 22.6295 38.1665 3.9585
H 22.6295 36.8332 1.0415
H 2.3705 36.8332 3.9585
H 22.0789 38.5574 0.8136
H 2.9211 38.5574 4.1864
H 11.8686 27.2676 1.0197
H 13.1314 27.2676 3.9803
H 13.5928 27.8575 0.8148
H 11.4072 27.8575 4.1852
H 13.1373 47.7316 1.0221
H 11.8626 47.7316 3.9779
H 11.4137 47.1397 0.8132
H 13.5863 47.1397 4.1868
B 25.0000 37.4999 2.5000
H 25.7172 37.6475 2.3376
B 12.5000 24.9996 2.5000
N -0.9833225941133363 37.20320895546676 2.5163
H -1.3577341673147103 37.42831975896778 1.5866000000000002
H -1.4559041100111283 37.84069564617626 3.1687000000000003
X -2.216927542165215 37.36135895263425 2.3646815962920793
N 12.553671473419191 51.02530379395858 2.5163
H 12.89222962777659 51.30141477910425 1.5866000000000002
H 13.313492322593582 51.25420300138382 3.1687000000000003
X 12.866338747884761 52.140331266285585 2.378183977917897
N 13.101365502084846 24.166948552573025 2.5163
H 13.010774735606596 23.7395702505631 1.5866000000000002
H 12.653017674865835 23.512191501577774 3.1687000000000003
X 13.13132475837608 22.86009873117205 2.3787996358053003
0 40 A
0 8 A
0 56 S
1 41 A
1 9 A
1 57 S
2 10 A
2 42 A
2 58 S
3 11 A
3 43 A
3 59 S
4 60 S
4 44 A
4 12 A
5 13 A
5 61 S
5 45 A
6 14 A
6 46 A
6 62 S
7 47 A
7 63 S
7 15 A
8 48 S
8 16 A
9 17 A
9 49 S
10 18 A
10 50 S
11 51 S
11 19 A
12 20 A
12 52 S
13 53 S
13 21 A
14 22 A
14 54 S
15 23 A
15 55 S
16 24 A
16 64 S
17 25 A
17 65 S
18 66 S
18 26 A
19 67 S
19 27 A
20 28 A
20 68 S
21 69 S
21 29 A
22 70 S
22 30 A
23 31 A
23 71 S
24 32 A
24 25 S
25 33 A
26 34 A
26 27 S
27 35 A
28 31 S
28 36 A
29 30 S
29 37 A
30 38 A
31 39 A
32 40 A
32 83 S
33 83 S
33 41 A
34 82 S
34 42 A
35 43 A
35 82 S
36 80 S
36 44 A
37 81 S
37 45 A
38 81 S
38 46 A
39 80 S
39 47 A
40 72 S
41 73 S
42 74 S
43 75 S
44 76 S
45 77 S
46 78 S
47 79 S
48 53 T
49 52 T
50 55 T
51 54 T
80 85 S
80 88 S
81 89 S
81 84 S
82 92 S
82 93 S
83 97 S
83 96 S
84 104 S
84 102 S
84 86 S
85 105 S
85 103 S
85 87 S
86 100 S
88 108 S
88 106 S
88 90 S
89 109 S
89 107 S
89 91 S
91 100 S
92 112 S
92 94 S
92 110 S
93 113 S
93 95 S
93 111 S
96 116 S
96 98 S
96 114 S
97 117 S
97 99 S
97 115 S
98 101 S
99 101 S
118 119 S
118 90 S
118 87 S
120 94 S
120 95 S
121 122 S
121 123 S
100 122 S
124 123 S
125 126 S
125 127 S
101 126 S
128 127 S
129 130 S
129 131 S
120 130 S
132 131 S
