128
mol to xyz file
O 10.2917 3.7279 1.7656
O 7.9715 3.5894 1.7656
O 14.6026 21.1664 1.7656
O 16.9228 21.3049 1.7656
O 21.1664 10.2917 1.7656
O 21.3049 7.9715 1.7656
O 3.7279 14.6026 1.7656
O 3.5894 16.9228 1.7656
O 14.6026 3.7279 1.7656
O 16.9228 3.5894 1.7656
O 10.2917 21.1664 1.7656
O 7.9715 21.3049 1.7656
O 3.7279 10.2917 1.7656
O 3.5894 7.9715 1.7656
O 21.1664 14.6026 1.7656
O 21.3049 16.9228 1.7656
B 9.1830 2.8959 1.7656
B 15.7113 21.9984 1.7656
B 21.9984 9.1830 1.7656
B 2.8959 15.7113 1.7656
B 15.7113 2.8959 1.7656
B 9.1830 21.9984 1.7656
B 2.8959 9.1830 1.7656
B 21.9984 15.7113 1.7656
C 15.1425 19.8911 1.7656
C 14.4434 18.6820 1.7656
C 15.2125 17.5167 1.7656
C 16.5919 17.6036 1.7656
C 17.2760 18.8472 1.7656
C 16.5202 19.9866 1.7656
C 13.0512 18.6594 1.7656
C 9.7518 5.0032 1.7656
C 10.4509 6.2123 1.7656
C 9.6818 7.3776 1.7656
C 8.3024 7.2907 1.7656
C 7.6183 6.0471 1.7656
C 8.3741 4.9077 1.7656
C 11.8431 6.2349 1.7656
C 5.0032 15.1425 1.7656
C 6.2123 14.4434 1.7656
C 7.3776 15.2125 1.7656
C 7.2907 16.5919 1.7656
C 6.0471 17.2760 1.7656
C 4.9077 16.5202 1.7656
C 6.2349 13.0512 1.7656
C 19.8911 9.7518 1.7656
C 18.6820 10.4509 1.7656
C 17.5167 9.6818 1.7656
C 17.6036 8.3024 1.7656
C 18.8472 7.6183 1.7656
C 19.9866 8.3741 1.7656
C 18.6594 11.8431 1.7656
C 9.7518 19.8911 1.7656
C 10.4509 18.6820 1.7656
C 9.6818 17.5167 1.7656
C 8.3024 17.6036 1.7656
C 7.6183 18.8472 1.7656
C 8.3741 19.9866 1.7656
C 11.8431 18.6594 1.7656
C 15.1425 5.0032 1.7656
C 14.4434 6.2123 1.7656
C 15.2125 7.3776 1.7656
C 16.5919 7.2907 1.7656
C 17.2760 6.0471 1.7656
C 16.5202 4.9077 1.7656
C 13.0512 6.2349 1.7656
C 19.8911 15.1425 1.7656
C 18.6820 14.4434 1.7656
C 17.5167 15.2125 1.7656
C 17.6036 16.5919 1.7656
C 18.8472 17.2760 1.7656
C 19.9866 16.5202 1.7656
C 18.6594 13.0512 1.7656
C 5.0032 9.7518 1.7656
C 6.2123 10.4509 1.7656
C 7.3776 9.6818 1.7656
C 7.2907 8.3024 1.7656
C 6.0471 7.6183 1.7656
C 4.9077 8.3741 1.7656
C 6.2349 11.8431 1.7656
H 14.7010 16.5350 1.7656
H 10.1933 8.3593 1.7656
H 8.3593 14.7010 1.7656
H 16.5350 10.1933 1.7656
H 10.1933 16.5350 1.7656
H 14.7010 8.3593 1.7656
H 16.5350 14.7010 1.7656
H 8.3593 10.1933 1.7656
H 19.3619 5.5324 1.7656
H 5.5324 19.3619 1.7656
H 19.3619 19.3619 1.7656
H 5.5324 5.5324 1.7656
N 18.6397 6.2546 1.7656
N 6.2546 18.6397 1.7656
N 18.6397 18.6397 1.7656
N 6.2546 6.2546 1.7656
N 9.138519205626041 1.869756560254922 1.7819
H 8.802448111382265 1.5906237610109215 0.8522
H 8.38077938460327 1.6340598618555155 2.4343
X 8.787818561095662 0.731900127648837 1.7656
N 15.755780794373957 23.02454343974508 1.7819
H 16.091851888617732 23.30367623898908 0.8522
H 16.51352061539673 23.26024013814449 2.4343
X 16.106481438904336 24.162399872351163 1.7656
N 23.023676189073935 9.121700439495593 1.7819
H 23.297261212256867 8.781097833677618 0.8522
H 23.24691722975006 8.360197972160233 2.4343
X 24.162399872351163 8.787818561095664 1.7656
N 1.8706238109260678 15.77259956050441 1.7819
H 1.5970387877431345 16.113202166322385 0.8522
H 1.6473827702499406 16.53410202783977 2.4343
X 0.7319001276488368 16.106481438904336 1.7656
N 16.30304871151677 2.056386830110304 1.7819
H 16.20754830696219 1.6300787575501972 0.8522
H 15.847199640592086 1.4068299084035876 2.4343
X 16.106481438904336 0.731900127648837 1.7656
N 8.591251288483228 22.837913169889692 1.7819
H 8.686751693037804 23.2642212424498 0.8522
H 9.04710035940791 23.48747009159641 2.4343
X 8.787818561095664 24.162399872351163 1.7656
N 2.058771473105768 8.58788259186956 1.7819
H 1.6320830864977625 8.681669161984146 0.8522
H 1.4073880256634186 9.041117822625203 2.4343
X 0.7319001276488368 8.787818561095664 1.7656
N 22.835528526894233 16.30641740813044 1.7819
H 23.262216913502236 16.212630838015855 0.8522
H 23.48691197433658 15.853182177374796 2.4343
X 24.162399872351163 16.106481438904336 1.7656
0 31 S
0 16 S
1 36 S
1 16 S
2 24 S
2 17 S
3 17 S
3 29 S
4 45 S
4 18 S
5 50 S
5 18 S
6 38 S
6 19 S
7 43 S
7 19 S
8 59 S
8 20 S
9 64 S
9 20 S
10 52 S
10 21 S
11 21 S
11 57 S
12 73 S
12 22 S
13 78 S
13 22 S
14 66 S
14 23 S
15 71 S
15 23 S
24 29 A
24 25 A
25 30 S
25 26 A
26 80 S
26 27 A
27 69 A
27 28 A
28 94 A
28 29 A
30 58 T
31 36 A
31 32 A
32 37 S
32 33 A
33 81 S
33 34 A
34 76 A
34 35 A
35 95 A
35 36 A
37 65 T
38 39 A
38 43 A
39 40 A
39 44 S
40 82 S
40 41 A
41 55 A
41 42 A
42 43 A
42 93 A
44 79 T
45 46 A
45 50 A
46 47 A
46 51 S
47 83 S
47 48 A
48 62 A
48 49 A
49 50 A
49 92 A
51 72 T
52 57 A
52 53 A
53 58 S
53 54 A
54 84 S
54 55 A
55 56 A
56 93 A
56 57 A
59 64 A
59 60 A
60 65 S
60 61 A
61 85 S
61 62 A
62 63 A
63 92 A
63 64 A
66 67 A
66 71 A
67 68 A
67 72 S
68 86 S
68 69 A
69 70 A
70 71 A
70 94 A
73 74 A
73 78 A
74 75 A
74 79 S
75 87 S
75 76 A
76 77 A
77 78 A
77 95 A
88 92 S
89 93 S
90 94 S
91 95 S
96 97 S
96 98 S
16 97 S
99 98 S
100 101 S
100 102 S
17 101 S
103 102 S
104 105 S
104 106 S
18 105 S
107 106 S
108 109 S
108 110 S
19 109 S
111 110 S
112 113 S
112 114 S
20 113 S
115 114 S
116 117 S
116 118 S
21 117 S
119 118 S
120 121 S
120 122 S
22 121 S
123 122 S
124 125 S
124 126 S
23 125 S
127 126 S
