18
mol to xyz file
O 7.8287 3.0359 5.0254
O 9.1094 5.2619 5.0254
O 6.5413 5.2580 5.0254
B 6.5771 3.7948 5.0253
B 9.0780 3.7985 5.0254
B 7.8243 5.9625 5.0254
N 5.876937622885021 3.0433204289718176 5.0416
H 5.440104206335013 3.0492757782686564 4.1118999999999994
H 5.147638370575736 3.356122555852563 5.694
X 4.62780035841908 2.6715695156406354 5.025230744095551
N 10.074174986795311 3.5483314654410747 5.0417000000000005
H 10.279928951306035 3.1629430820041584 4.112
H 10.152485639018188 2.7586543087824644 5.694100000000001
X 11.033688718677968 2.686305850426412 5.025434390856563
N 7.5376136592344665 6.9487858824998305 5.0417000000000005
H 7.76651642504534 7.320891275908919 4.112
H 8.17986832323116 7.414866901824254 5.694100000000001
X 7.809665766043834 8.212295272589321 5.02543486820411
0 3 S
0 4 S
1 5 S
1 4 S
2 5 S
2 3 S
6 7 S
6 8 S
3 7 S
9 8 S
10 11 S
10 12 S
4 11 S
13 12 S
14 15 S
14 16 S
5 15 S
17 16 S
