21
mol to xyz file
O 7.8287 3.0359 5.0254
O 9.1094 5.2619 5.0254
O 6.5413 5.2580 5.0254
B 6.5771 3.7948 5.0253
B 9.0780 3.7985 5.0254
B 7.8243 5.9625 5.0254
O 5.3890968047837555 2.138578632502287 5.3526
C 5.518013846066172 3.4317726614349096 5.0125
O 4.580458054587672 4.115513831663179 4.7261
H 4.39063913064477 1.9606472891336526 5.5454
X 4.62780035841908 2.6715695156406354 5.025230744095551
O 11.10953522998525 3.6333170125927605 5.3527000000000005
C 9.934686527145583 3.0777084044557412 5.012600000000001
O 9.83154969889759 1.9219075372390118 4.7262
H 11.776340054095293 2.86915170551348 5.5455000000000005
X 11.033688718677968 2.686305850426412 5.025434390856563
O 6.945983250131271 7.801788040764697 5.3527000000000005
C 8.016824872608792 7.065399135654286 5.012600000000001
O 9.067854365627818 7.557181460269732 4.7262
H 7.27144556201692 8.762335579172895 5.5455000000000005
X 7.809665766043834 8.212295272589321 5.02543486820411
0 3 S
0 4 S
1 5 S
1 4 S
2 5 S
2 3 S
6 7 S
7 8 A
6 9 S
3 7 S
10 9 S
11 12 S
12 13 A
11 14 S
4 12 S
15 14 S
16 17 S
17 18 A
16 19 S
5 17 S
20 19 S
