21
mol to xyz file
C 2.3423 2.8563 1.5150
N 2.3410 1.4167 1.9710
C 3.6482 0.6945 2.1956
N 4.9569 1.4088 1.9558
C 4.9580 2.8481 1.4979
N 3.6508 3.5725 1.2791
O 1.1009642810147209 -0.20093167180933413 2.2983000000000002
C 1.270912224914039 1.0875123884293691 1.9582000000000002
O 0.35555836498062154 1.8007025181318166 1.6718000000000002
H 0.0973564727121996 -0.3470434684385242 2.4911000000000003
X 0.3914216052078969 0.3495704444157278 2.321607769285691
O 6.988988053238204 1.250562981933541 2.2831
C 5.816045618517946 0.6909412839691813 1.943
O 5.716860612517757 -0.4652054128581473 1.6566
H 7.658401355602969 0.4886816784373198 2.4759
X 6.904272977701225 0.32992402791688635 2.2820789992237307
O 2.759525507515719 5.405544077224246 1.6064
C 3.8355370652492162 4.67673029605382 1.2663
O 4.883069944739022 5.17591735156287 0.9799
H 3.078201258314125 6.368364442532891 1.7992
X 3.6528254111765714 5.718197605422368 0.602279114907604
0 5 A
0 1 A
1 2 A
2 3 A
3 4 A
4 5 A
6 7 S
7 8 A
6 9 S
1 7 S
10 9 S
11 12 S
12 13 A
11 14 S
3 12 S
15 14 S
16 17 S
17 18 A
16 19 S
5 17 S
20 19 S
