18
mol to xyz file
C 2.3423 2.8563 1.5150
N 2.3410 1.4167 1.9710
C 3.6482 0.6945 2.1956
N 4.9569 1.4088 1.9558
C 4.9580 2.8481 1.4979
N 3.6508 3.5725 1.2791
N 1.6370575336429596 0.6687602269840395 1.9873
H 1.2002596968535237 0.6769180315949267 1.0575999999999999
H 0.9093447120165599 0.9852355328777906 2.6397
X 0.3914216052078969 0.3495704444157278 2.321607769285691
N 5.956635941986982 1.173264554048864 1.9721
H 6.168018460817144 0.7909344208746447 1.0423999999999998
H 6.046516643357038 0.38482049799845086 2.6245
X 6.904272977701225 0.32992402791688635 2.2820789992237307
N 3.3546171412764445 4.555975782212426 1.2953999999999999
H 3.5799213973241195 4.9302709761527215 0.3656999999999998
H 3.9923479602109797 5.028227804527934 1.9478
X 3.6528254111765714 5.718197605422368 0.602279114907604
0 5 A
0 1 A
1 2 A
2 3 A
3 4 A
4 5 A
6 7 S
6 8 S
1 7 S
9 8 S
10 11 S
10 12 S
3 11 S
13 12 S
14 15 S
14 16 S
5 15 S
17 16 S
