22
mol to xyz file
N 4.4882 7.7491 1.6925
N 5.9178 10.2746 1.6925
C 5.8665 7.8337 1.6925
C 4.5395 10.1900 1.6925
O 6.6789 6.7417 1.6925
O 3.7271 11.2820 1.6925
C 3.8432 8.9792 1.6925
C 6.5628 9.0445 1.6925
O 2.4934 9.1543 1.6925
O 7.9126 8.8694 1.6925
B 7.9432 7.4300 1.6925
B 2.4628 10.5937 1.6925
O 9.975143512848883 7.269917613113305 2.0198
C 8.801693343207821 6.711361349725844 1.6797
O 8.701458427293803 5.555305204189777 1.3933
H 10.643864639174755 6.507428698305057 2.2126
X 9.882180229398223 6.288972965158171 1.6925
O 0.4308564871511176 10.753782386886696 2.0198
C 1.6043066567921798 11.312338650274155 1.6797
O 1.7045415727061992 12.468394795810223 1.3933
H -0.2378646391747532 11.516271301694943 2.2126
X 0.5238197706017762 11.73472703484183 1.6925
0 2 A
0 6 A
1 7 A
1 3 A
2 7 A
2 4 S
3 6 A
3 5 S
4 10 S
5 11 S
6 8 S
7 9 S
8 11 S
9 10 S
12 13 S
13 14 A
12 15 S
10 13 S
16 15 S
17 18 S
18 19 A
17 20 S
11 18 S
21 20 S
