20
mol to xyz file
N 4.4882 7.7491 1.6925
N 5.9178 10.2746 1.6925
C 5.8665 7.8337 1.6925
C 4.5395 10.1900 1.6925
O 6.6789 6.7417 1.6925
O 3.7271 11.2820 1.6925
C 3.8432 8.9792 1.6925
C 6.5628 9.0445 1.6925
O 2.4934 9.1543 1.6925
O 7.9126 8.8694 1.6925
B 7.9432 7.4300 1.6925
B 2.4628 10.5937 1.6925
N 8.939987657100184 7.182283899084603 1.7087999999999999
H 9.146689473873652 6.797403061756284 0.7790999999999998
H 9.020241538486651 6.392801863492654 2.3611999999999997
X 9.882180229398223 6.288972965158171 1.6925
N 1.466012342899817 10.841416100915398 1.7087999999999999
H 1.2593105261263506 11.226296938243717 0.7790999999999998
H 1.3857584615133522 11.630898136507348 2.3611999999999997
X 0.5238197706017762 11.73472703484183 1.6925
0 2 A
0 6 A
1 7 A
1 3 A
2 7 A
2 4 S
3 6 A
3 5 S
4 10 S
5 11 S
6 8 S
7 9 S
8 11 S
9 10 S
12 13 S
12 14 S
10 13 S
15 14 S
16 17 S
16 18 S
11 17 S
19 18 S
