24
mol to xyz file
B 1.2452 9.5470 0.0001
H 2.1802 10.0870 0.0000
B -1.2456 9.5468 0.0001
H -2.1807 10.0866 0.0004
B 0.0000 7.3899 0.0003
H 0.0001 6.3101 0.0004
N -0.0003 10.2894 -0.0002
N -1.2658 8.0970 0.0001
N 1.2657 8.0972 0.0004
O -0.8592757559534184 12.137799702630428 0.32710000000000006
C 0.2037828196376489 11.390219028146202 -0.012999999999999998
O 1.2599128992015125 11.870949831237107 -0.2994
H -0.5237559658744292 13.094880556302337 0.5199
X -0.022963062975948488 12.207272730810715 0.40691364293489757
O -2.6570819009688553 6.607451248855383 0.3274
C -2.3628004043611783 7.8732983173254825 -0.012699999999999996
O -3.20456000784832 8.67201830576772 -0.2991
H -3.67013583435047 6.559503172146937 0.5202000000000001
X -2.914685729726459 7.119296375687225 0.4023175548527938
O 3.3006482684085894 7.98141418523462 0.32770000000000005
C 2.1396426343440633 7.397431036787314 -0.012400000000000001
O 2.0646120307515163 6.239465899779926 -0.29879999999999995
H 3.9858188285761598 7.23367185429457 0.5205000000000001
X 2.920772916694353 7.129173605603217 -0.8190311671278849
0 1 S
0 8 S
0 6 S
2 3 S
2 7 S
2 6 S
4 8 S
4 7 S
4 5 S
9 10 S
10 11 A
9 12 S
6 10 S
13 12 S
14 15 S
15 16 A
14 17 S
7 15 S
18 17 S
19 20 S
20 21 A
19 22 S
8 20 S
23 22 S
