21
mol to xyz file
B 1.2452 9.5470 0.0001
H 2.1802 10.0870 0.0000
B -1.2456 9.5468 0.0001
H -2.1807 10.0866 0.0004
B 0.0000 7.3899 0.0003
H 0.0001 6.3101 0.0004
N -0.0003 10.2894 -0.0002
N -1.2658 8.0970 0.0001
N 1.2657 8.0972 0.0004
N -0.28838751394305007 11.275277519933441 0.0161
H -0.060013722257685566 11.647707796993794 -0.9136000000000001
H 0.3532042239940827 11.74227068028037 0.6685
X -0.022963062975948488 12.207272730810715 0.40691364293489757
N -1.979934417729781 7.358785306693407 0.016399999999999998
H -2.4165792839977014 7.3729331249658365 -0.9133
H -2.703238261759831 7.685211591191692 0.6688000000000001
X -2.914685729726459 7.119296375687225 0.4023175548527938
N 2.2514281768174467 7.808601903283905 0.0167
H 2.4420875570688114 7.4155269731215165 -0.913
H 2.2990674277016225 7.016482548782832 0.6691
X 2.920772916694353 7.129173605603217 -0.8190311671278849
0 1 S
0 8 S
0 6 S
2 3 S
2 7 S
2 6 S
4 8 S
4 7 S
4 5 S
9 10 S
9 11 S
6 10 S
12 11 S
13 14 S
13 15 S
7 14 S
16 15 S
17 18 S
17 19 S
8 18 S
20 19 S
