20
mol to xyz file
C -1.2024 1.3898 -0.0455
C -0.2094 0.4353 -0.1298
C 0.7474 1.4157 0.0348
C -0.2454 2.3701 0.1190
N -2.18374732560562 1.0866394377121311 -0.0292
H -2.559633310649345 1.3092795649302695 -0.9589000000000001
H -2.6605169436326435 1.7209999829278364 0.6232
X -3.450299100962413 1.3599428559893754 -0.13793153063801117
N 0.08822265242409008 -0.547741024964904 -0.1135
H -0.13653327871109605 -0.9223657323982972 -1.0432000000000001
H -0.5488159604900085 -1.0209263751782018 0.5389
X -0.16780384891456002 -1.7960017260566812 -0.41685132005731085
N 1.7288109270177268 1.718654604405027 0.05109999999999999
H 2.104650179243259 1.4959355964902263 -0.8786
H 2.2054474039846466 1.0841940155387344 0.7035
X 2.9952959963573713 1.4457557923089943 0.1274041129044025
N -0.5431250043538765 3.3531100313742908 0.1353
H -0.3184080800991213 3.7277581382071996 -0.7944
H 0.09386433737995131 3.8263617070369396 0.7877000000000001
X -0.2867583015155267 4.601391254343116 0.4060092913313865
0 1 A
0 3 A
1 2 A
2 3 A
4 5 S
4 6 S
0 5 S
7 6 S
8 9 S
8 10 S
1 9 S
11 10 S
12 13 S
12 14 S
2 13 S
15 14 S
16 17 S
16 18 S
3 17 S
19 18 S
