24
mol to xyz file
C -1.2024 1.3898 -0.0455
C -0.2094 0.4353 -0.1298
C 0.7474 1.4157 0.0348
C -0.2454 2.3701 0.1190
O -3.03855325181655 0.5049485741416772 0.28180000000000005
C -2.305976752261789 1.5784019137424694 -0.058300000000000005
O -2.8014932689545 2.627676058894594 -0.3447
H -4.0002520121169205 0.82699326737032 0.4746
X -3.450299100962413 1.3599428559893754 -0.13793153063801117
O 0.7370825230963383 -1.3698569581266862 0.19750000000000004
C -0.36054734655482634 -0.6740271878167574 -0.1426
O -1.3924515321123092 -1.2047687462319125 -0.42899999999999994
H 0.4477674864566691 -2.341903304539339 0.3903000000000001
X -0.16780384891456002 -1.7960017260566812 -0.41685132005731085
O 2.583746973129229 2.300149322617819 0.36210000000000003
C 1.850935425633252 1.226856428829477 0.022
O 2.346222159715286 0.17747380030813886 -0.26439999999999997
H 3.545375188816722 1.9778940436949015 0.5549000000000001
X 2.9952959963573713 1.4457557923089943 0.1274041129044025
O -1.1920869316421923 4.175149767584786 0.44630000000000003
C -0.09437827378946309 3.4794442965159145 0.1062
O 0.9374658043775823 4.010302703580924 -0.18019999999999997
H -0.9028819706536035 5.147228869581937 0.6391
X -0.2867583015155267 4.601391254343116 0.4060092913313865
0 1 A
0 3 A
1 2 A
2 3 A
4 5 S
5 6 A
4 7 S
0 5 S
8 7 S
9 10 S
10 11 A
9 12 S
1 10 S
13 12 S
14 15 S
15 16 A
14 17 S
2 15 S
18 17 S
19 20 S
20 21 A
19 22 S
3 20 S
23 22 S
