42
mol to xyz file
C 30.1662 42.6015 28.4010
C 26.6358 42.6015 28.4010
C 29.2867 41.6687 29.2867
C 28.4010 42.6015 30.1662
H 29.0688 43.2500 30.8243
H 27.7286 41.9630 30.8294
C 29.2867 43.5343 27.5153
C 28.4010 42.6015 26.6358
H 29.0688 41.9530 25.9777
H 27.7286 43.2400 25.9726
C 27.5153 41.6687 27.5153
H 25.9726 41.9630 29.0734
C 28.4010 40.8013 28.4010
H 27.7382 40.1432 29.0546
H 29.0576 40.1401 27.7444
C 28.4010 44.4016 28.4010
H 25.9777 43.2349 27.7189
C 27.5153 43.5343 29.2867
H 27.7382 45.0598 27.7474
H 29.0576 45.0629 29.0576
H 30.8243 43.2349 29.0831
H 30.8294 41.9630 27.7286
O 31.13552584725495 40.81064184548948 29.614
C 29.84099133134463 40.695964964136586 29.273899999999998
O 29.34422320977462 39.647282799039935 28.9875
H 31.496658561085376 39.862928569756 29.8068
X 30.571583507824002 40.342078608898916 30.571583507824005
O 29.19808608728893 45.57061244765484 27.8426
C 29.89541732700893 44.473935858084985 27.502499999999998
O 31.055074579998486 44.5152626724882 27.2161
H 29.873442687312853 46.32723041783803 28.0354
X 30.571583507824005 44.86092139110109 26.230416492175998
O 27.886266837202125 39.66450329915044 27.8426
C 27.043185193501078 40.653535018588364 27.502499999999998
O 25.900546595064544 40.45132254774891 27.2161
H 27.322705959697338 38.821309117869504 28.0354
X 26.230416492175994 40.342078608898916 26.230416492175998
O 25.60152461581923 44.23564484307204 29.614
C 26.882039437045265 44.45757319326744 29.273899999999998
O 27.289882524630617 45.54393264847039 28.9875
H 25.162834385439428 45.150045286952796 29.8068
X 26.230416492175998 44.86092139110109 30.571583507824005
0 21 S
0 20 S
0 6 S
0 2 S
1 17 S
1 10 S
1 11 S
1 16 S
2 12 S
2 3 S
3 5 S
3 17 S
3 4 S
6 7 S
6 15 S
7 9 S
7 8 S
7 10 S
10 12 S
12 14 S
12 13 S
15 19 S
15 18 S
15 17 S
22 23 S
23 24 A
22 25 S
2 23 S
26 25 S
27 28 S
28 29 A
27 30 S
6 28 S
31 30 S
32 33 S
33 34 A
32 35 S
10 33 S
36 35 S
37 38 S
38 39 A
37 40 S
17 38 S
41 40 S
