38
mol to xyz file
C 30.1662 42.6015 28.4010
C 26.6358 42.6015 28.4010
C 29.2867 41.6687 29.2867
C 28.4010 42.6015 30.1662
H 29.0688 43.2500 30.8243
H 27.7286 41.9630 30.8294
C 29.2867 43.5343 27.5153
C 28.4010 42.6015 26.6358
H 29.0688 41.9530 25.9777
H 27.7286 43.2400 25.9726
C 27.5153 41.6687 27.5153
H 25.9726 41.9630 29.0734
C 28.4010 40.8013 28.4010
H 27.7382 40.1432 29.0546
H 29.0576 40.1401 27.7444
C 28.4010 44.4016 28.4010
H 25.9777 43.2349 27.7189
C 27.5153 43.5343 29.2867
H 27.7382 45.0598 27.7474
H 29.0576 45.0629 29.0576
H 30.8243 43.2349 29.0831
H 30.8294 41.9630 27.7286
N 30.06676343592697 41.00053090768144 29.303
H 30.079055851436237 40.563829869760816 28.3733
H 29.784690402376135 40.25880496520442 29.9554
X 30.571583507824002 40.342078608898916 30.571583507824005
N 29.62388877489402 44.504481751057746 27.5316
H 30.02594607293978 44.67538765817667 26.6019
H 30.417396524429257 44.5127292614408 28.184
X 30.571583507824005 44.86092139110109 26.230416492175998
N 27.106375703118136 40.7265058483414 27.5316
H 26.692644520630612 40.58620114907058 26.6019
H 26.31448001146325 40.77772872934612 28.184
X 26.230416492175994 40.342078608898916 26.230416492175998
N 26.80115007467107 44.27249969124397 29.303
H 26.82975631998883 44.7084361346951 28.3733
H 27.151360467582936 44.98459185571182 29.9554
X 26.230416492175998 44.86092139110109 30.571583507824005
0 21 S
0 20 S
0 6 S
0 2 S
1 17 S
1 10 S
1 11 S
1 16 S
2 12 S
2 3 S
3 5 S
3 17 S
3 4 S
6 7 S
6 15 S
7 9 S
7 8 S
7 10 S
10 12 S
12 14 S
12 13 S
15 19 S
15 18 S
15 17 S
22 23 S
22 24 S
2 23 S
25 24 S
26 27 S
26 28 S
6 27 S
29 28 S
30 31 S
30 32 S
10 31 S
33 32 S
34 35 S
34 36 S
17 35 S
37 36 S
