16
mol to xyz file
C -4.3486 0.0369 0.0000
C -3.5786 -1.2968 0.0000
C -2.0386 -1.2968 0.0000
C -1.2686 0.0369 0.0000
C -2.0386 1.3705 0.0000
C -3.5786 1.3705 0.0000
O -0.35730085550556456 -2.4490386891275087 0.32730000000000004
C -1.6529605274686898 -2.3478635219746575 -0.012799999999999999
O -2.3164535029921325 -3.2998561277395604 -0.29919999999999997
H -0.1580141009605378 -3.443454135237891 0.5201
X -0.9136088056089615 -3.2453431895575693 0.0
O -5.259936455320537 2.5226842448194526 0.32730000000000004
C -3.964273507789976 2.4215510336748527 -0.012799999999999999
O -3.3008113599682067 3.3735651241208533 -0.29919999999999997
H -5.459255410848151 3.5170932371195933 0.5201
X -4.703633372104139 3.3191188377117915 0.0
0 5 A
0 1 A
1 2 A
2 3 A
3 4 A
4 5 A
6 7 S
7 8 A
6 9 S
2 7 S
10 9 S
11 12 S
12 13 A
11 14 S
5 12 S
15 14 S
