14
mol to xyz file
C -4.3486 0.0369 0.0000
C -3.5786 -1.2968 0.0000
C -2.0386 -1.2968 0.0000
C -1.2686 0.0369 0.0000
C -2.0386 1.3705 0.0000
C -3.5786 1.3705 0.0000
N -1.296301128204166 -2.0066882200252603 0.016300000000000002
H -1.3079440893554435 -2.4434070557257943 -0.9134
H -1.6185731229638014 -2.7318525678759014 0.6687000000000001
X -0.9136088056089615 -3.2453431895575693 0.0
N -4.320921842974354 2.080364199296709 0.016300000000000002
H -4.309293013794998 2.517083411527998 -0.9134
H -3.9986733142771644 2.80553897530074 0.6687000000000001
X -4.703633372104139 3.3191188377117915 0.0
0 5 A
0 1 A
1 2 A
2 3 A
3 4 A
4 5 A
6 7 S
6 8 S
2 7 S
9 8 S
10 11 S
10 12 S
5 11 S
13 12 S
