18
mol to xyz file
C -0.9416 0.0008 0.0044
C -0.2427 -1.2112 0.0099
C 1.1563 -1.2120 0.0055
C 1.8565 -0.0008 -0.0044
C 1.1577 1.2112 -0.0099
C -0.2414 1.2120 -0.0055
N -0.4842022021773432 -2.2095113674317717 0.0262
H -0.8677880055480355 -2.418606636274615 -0.9035000000000001
H -1.2731690113123442 -2.29468145656719 0.6786
X -1.3688043622402186 -3.1590880981670244 0.02577883795396833
N 2.8395916638106877 0.29665534210353844 0.0119
H 3.2141781140902967 0.07183565598392352 -0.9178000000000001
H 3.3126685881061153 -0.3404637940862159 0.6643
X 4.106492243604264 -0.0021219918897070573 -0.011453257449176031
N -0.9835338302556704 1.922060756548373 0.0108
H -0.9717893492242673 2.358776873912162 -0.9189
H -0.6610932716122706 2.6471501690636376 0.6632
X -1.3652694480464986 3.161146074616939 -0.014332401429729982
0 1 A
0 5 A
1 2 A
2 3 A
3 4 A
4 5 A
6 7 S
6 8 S
1 7 S
9 8 S
10 11 S
10 12 S
3 11 S
13 12 S
14 15 S
14 16 S
5 15 S
17 16 S
