21
mol to xyz file
C -0.9416 0.0008 0.0044
C -0.2427 -1.2112 0.0099
C 1.1563 -1.2120 0.0055
C 1.8565 -0.0008 -0.0044
C 1.1577 1.2112 -0.0099
C -0.2414 1.2120 -0.0055
O -0.3924662845891972 -3.2439299058163993 0.33720000000000006
C -0.9569717245278767 -2.0733300560472143 -0.0029
O -2.1135217641705104 -1.9789645125335884 -0.2893
H -1.1515509826824253 -3.9165127714327577 0.53
X -1.3688043622402186 -3.1590880981670244 0.02577883795396833
O 3.698684756288393 0.8714248183230493 0.3229
C 2.9587559348997834 -0.19697386160802607 -0.0172
O 3.4470571854909045 -1.2496251517659527 -0.3036
H 4.658149917224174 0.5427853578949468 0.5157
X 4.106492243604264 -0.0021219918897070573 -0.011453257449176031
O -1.9217333342346465 2.365646694555953 0.32180000000000003
C -0.6261588704308866 2.263386200035338 -0.018299999999999997
O 0.03813134824376324 3.214822669471519 -0.30469999999999997
H -2.120187005665294 3.3602287325476397 0.5146000000000001
X -1.3652694480464986 3.161146074616939 -0.014332401429729982
0 1 A
0 5 A
1 2 A
2 3 A
3 4 A
4 5 A
6 7 S
7 8 A
6 9 S
1 7 S
10 9 S
11 12 S
12 13 A
11 14 S
3 12 S
15 14 S
16 17 S
17 18 A
16 19 S
5 17 S
20 19 S
