24
mol to xyz file
C -0.9822 -0.1352 -0.0026
C -0.2827 -1.3469 0.0001
C 1.1163 -1.3470 0.0027
C 1.8159 -0.1354 0.0026
C 1.1165 1.0763 -0.0001
C -0.2826 1.0763 -0.0027
H 1.6863 -2.3343 0.0048
H -0.8525 2.0636 -0.0048
N -1.9655457488621817 -0.4318142919595659 0.0137
H -2.339939750259875 -0.20667426504870265 -0.916
H -2.438077505317964 0.20570928340123057 0.6661
X -3.2321974060188667 -0.13509278649064427 -0.006787551243249328
N -0.524128174312444 -2.3452292726591564 0.016399999999999998
H -0.9076984717089529 -2.554352984741631 -0.9133
H -1.3130886657103698 -2.430457865356347 0.6688000000000001
X -1.4077461646096465 -3.295411447008609 0.00020721454663326258
N 2.799245754550955 0.16121427309995215 0.0189
H 3.173639751630682 -0.06392576099142333 -0.9108
H 3.271777498779656 -0.4763093113235429 0.6713
X 4.065897405833451 -0.13550721734106494 0.006787650867687834
N 1.3579590105549253 2.0746218149584017 0.0162
H 1.7415357671739429 2.283733679235958 -0.9135000000000001
H 2.1469221341141096 2.159826038232457 0.6686
X 2.2415863673370757 3.024788233218654 -0.00020721263067172778
0 5 A
0 1 A
1 2 A
2 3 A
3 4 A
4 5 A
2 6 S
5 7 S
8 9 S
8 10 S
0 9 S
11 10 S
12 13 S
12 14 S
1 13 S
15 14 S
16 17 S
16 18 S
3 17 S
19 18 S
20 21 S
20 22 S
4 21 S
23 22 S
