28
mol to xyz file
C -0.9822 -0.1352 -0.0026
C -0.2827 -1.3469 0.0001
C 1.1163 -1.3470 0.0027
C 1.8159 -0.1354 0.0026
C 1.1165 1.0763 -0.0001
C -0.2826 1.0763 -0.0027
H 1.6863 -2.3343 0.0048
H -0.8525 2.0636 -0.0048
O -2.824526793315558 -1.0071247654652407 0.32470000000000004
C -2.084423968946931 0.061153386216980354 -0.015399999999999997
O -2.572553765084309 1.1138841932720804 -0.30179999999999996
H -3.7839384151854327 -0.6783290388795448 0.5175000000000001
X -3.2321974060188667 -0.13509278649064427 -0.006787551243249328
O -0.42913988596162045 -3.379872250130224 0.3274
C -0.9955600469796104 -2.210197679494291 -0.012699999999999996
O -2.1522629505604285 -2.11772474914327 -0.2991
H -1.1871230065129939 -4.053696321352975 0.5202000000000001
X -1.4077461646096465 -3.295411447008609 0.00020721454663326258
O 3.658226803053435 0.7365247448896677 0.3299
C 2.918123966754006 -0.33175339852689717 -0.0102
O 3.4062537511342192 -1.3844842110335547 -0.2966
H 4.617638421251236 0.40772900758901964 0.5227
X 4.065897405833451 -0.13550721734106494 0.006787650867687834
O 1.2630019128089423 3.1092677812359257 0.32720000000000005
C 1.8293863862558424 1.9395759294055905 -0.012900000000000002
O 2.986086467906776 1.8470677075616675 -0.29929999999999995
H 2.0210055916888825 3.783068725732501 0.52
X 2.2415863673370757 3.024788233218654 -0.00020721263067172778
0 5 A
0 1 A
1 2 A
2 3 A
3 4 A
4 5 A
2 6 S
5 7 S
8 9 S
9 10 A
8 11 S
0 9 S
12 11 S
13 14 S
14 15 A
13 16 S
1 14 S
17 16 S
18 19 S
19 20 A
18 21 S
3 19 S
22 21 S
23 24 S
24 25 A
23 26 S
4 24 S
27 26 S
