36
mol to xyz file
C -1.8672 0.8722 0.0000
C -1.0972 -0.4615 0.0000
C 0.4428 -0.4615 0.0000
C 1.2128 0.8722 0.0000
C 0.4428 2.2058 0.0000
C -1.0972 2.2058 0.0000
O -3.709256338535182 -0.0002959917743809992 0.32730000000000004
C -2.969484801166213 1.0682115994474846 -0.012799999999999999
O -3.4579410043396077 2.120790996728959 -0.29919999999999997
H -4.668769867177449 0.32820222489119555 0.5201
X -4.1172 0.8722 0.0
O -1.243530696389019 -2.494480112370582 0.32730000000000004
C -1.8100136789032244 -1.3248359654088615 -0.012799999999999999
O -2.966721547464987 -1.2324251608062364 -0.29919999999999997
H -2.001477625279338 -3.168344893306441 0.5201
X -2.222191194391039 -2.4100431895575696 0.0
O 2.124099144494436 -1.6137386891275074 0.32730000000000004
C 0.828439472531311 -1.5125635219746578 -0.012799999999999999
O 0.164946497007869 -2.4645561277395602 -0.29919999999999997
H 2.323385899039464 -2.6081541352378896 0.5201
X 1.567791194391039 -2.4100431895575696 0.0
O 3.054856338535182 1.744695991774381 0.32730000000000004
C 2.315084801166214 0.6761884005525152 -0.012799999999999999
O 2.8035410043396087 -0.37639099672895904 -0.29919999999999997
H 4.01436986717745 1.4161977751088046 0.5201
X 3.4628 0.8722 0.0
O 0.5891957680290691 4.23877542756994 0.32730000000000004
C 1.15564131223285 3.0691131491956716 -0.012799999999999999
O 2.3123462223130655 2.9766653206851017 -0.29919999999999997
H 1.3471642656240599 4.912615947762657 0.5201
X 1.5678333721041389 4.154418837711792 0.0
O -2.778536455320537 3.3579842448194523 0.32730000000000004
C -1.4828735077899755 3.2568510336748524 -0.012799999999999999
O -0.8194113599682069 4.2088651241208535 -0.29919999999999997
H -2.97785541084815 4.352393237119593 0.5201
X -2.2222333721041387 4.154418837711791 0.0
0 5 A
0 1 A
1 2 A
2 3 A
3 4 A
4 5 A
6 7 S
7 8 A
6 9 S
0 7 S
10 9 S
11 12 S
12 13 A
11 14 S
1 12 S
15 14 S
16 17 S
17 18 A
16 19 S
2 17 S
20 19 S
21 22 S
22 23 A
21 24 S
3 22 S
25 24 S
26 27 S
27 28 A
26 29 S
4 27 S
30 29 S
31 32 S
32 33 A
31 34 S
5 32 S
35 34 S
