30
mol to xyz file
C -1.8672 0.8722 0.0000
C -1.0972 -0.4615 0.0000
C 0.4428 -0.4615 0.0000
C 1.2128 0.8722 0.0000
C 0.4428 2.2058 0.0000
C -1.0972 2.2058 0.0000
N -2.8503844571977677 0.5750515133393228 0.016300000000000002
H -3.2249007188807903 0.799988103815336 -0.9134
H -3.323262501872614 1.2123182744876622 0.6687000000000001
X -4.1172 0.8722 0.0
N -1.3385904911851707 -1.4598383849003214 0.016300000000000002
H -1.722152894720908 -1.6689765750853962 -0.9134
H -2.1275477649810117 -1.5450967576541719 0.6687000000000001
X -2.222191194391039 -2.4100431895575696 0.0
N 1.1850988717958342 -1.17138822002526 0.016300000000000002
H 1.1734559106445568 -1.608107055725794 -0.9134
H 0.8628268770361991 -1.8965525678759014 0.6687000000000001
X 1.567791194391039 -2.4100431895575696 0.0
N 2.195984457197768 1.1693484866606774 0.016300000000000002
H 2.5705007188807905 0.9444118961846643 -0.9134
H 2.668862501872614 0.5320817255123381 0.6687000000000001
X 3.4628 0.8722 0.0
N 0.6842228417536687 3.2041305622285554 0.016300000000000002
H 1.0677920221146877 3.4132563231409216 -0.9134
H 1.47318287789356 3.289363369140811 0.6687000000000001
X 1.5678333721041389 4.154418837711792 0.0
N -1.8395218429743545 2.915664199296709 0.016300000000000002
H -1.8278930137949985 3.352383411527998 -0.9134
H -1.5172733142771646 3.64083897530074 0.6687000000000001
X -2.2222333721041387 4.154418837711791 0.0
0 5 A
0 1 A
1 2 A
2 3 A
3 4 A
4 5 A
6 7 S
6 8 S
0 7 S
9 8 S
10 11 S
10 12 S
1 11 S
13 12 S
14 15 S
14 16 S
2 15 S
17 16 S
18 19 S
18 20 S
3 19 S
21 20 S
22 23 S
22 24 S
4 23 S
25 24 S
26 27 S
26 28 S
5 27 S
29 28 S
