24
mol to xyz file
C 4.4277 7.6590 1.6925
C 5.9780 10.3641 1.6928
C 5.9671 7.7099 1.6926
C 4.4386 10.3132 1.6927
O 6.9020 6.5433 1.6926
O 3.5034 11.4796 1.6929
C 3.6933 9.0128 1.6925
C 6.7124 9.0102 1.6925
O 2.2141 9.2300 1.6924
O 8.1916 8.7928 1.6923
B 8.1771 7.3067 1.6924
B 2.2284 10.7160 1.6927
O 3.6769 6.3486 1.6926
O 6.7288 11.6745 1.6933
O 10.209532788849272 7.1529542071783 2.0197
C 9.03782996150787 6.5907417167441515 1.6796
O 8.941200238809518 5.434378648027739 1.3932
H 10.880628185801683 6.3925541426140695 2.2125
X 10.133917211446917 6.196235912218472 1.6922343679857053
O 0.1959672111507289 10.869745792821698 2.02
C 1.3676700384921299 11.431958283255847 1.6799000000000002
O 1.4642997611904782 12.58832135197226 1.3935000000000002
H -0.4751281858016849 11.630145857385926 2.2128
X 0.27158278855308327 11.826464087781527 1.6928656320142947
0 2 S
0 6 S
0 12 D
1 7 S
1 3 S
1 13 D
2 7 D
2 4 S
3 6 D
3 5 S
4 10 S
5 11 S
6 8 S
7 9 S
8 11 S
9 10 S
14 15 S
15 16 A
14 17 S
10 15 S
18 17 S
19 20 S
20 21 A
19 22 S
11 20 S
23 22 S
