22
mol to xyz file
C 4.4277 7.6590 1.6925
C 5.9780 10.3641 1.6928
C 5.9671 7.7099 1.6926
C 4.4386 10.3132 1.6927
O 6.9020 6.5433 1.6926
O 3.5034 11.4796 1.6929
C 3.6933 9.0128 1.6925
C 6.7124 9.0102 1.6925
O 2.2141 9.2300 1.6924
O 8.1916 8.7928 1.6923
B 8.1771 7.3067 1.6924
B 2.2284 10.7160 1.6927
O 3.6769 6.3486 1.6926
O 6.7288 11.6745 1.6933
N 9.174638859542174 7.062026495706428 1.7086999999999999
H 9.38251407988863 6.677778147933907 0.7789999999999998
H 9.257301270561811 6.27279300946524 2.3611
X 10.133917211446917 6.196235912218472 1.6922343679857053
N 1.230861140457825 10.96067350429357 1.709
H 1.022985920111369 11.344921852066092 0.7793
H 1.1481987294381877 11.749906990534761 2.3614
X 0.27158278855308327 11.826464087781527 1.6928656320142947
0 2 S
0 6 S
0 12 D
1 7 S
1 3 S
1 13 D
2 7 D
2 4 S
3 6 D
3 5 S
4 10 S
5 11 S
6 8 S
7 9 S
8 11 S
9 10 S
14 15 S
14 16 S
10 15 S
17 16 S
18 19 S
18 20 S
11 19 S
21 20 S
