26
mol to xyz file
C 8.1446 38.6000 26.2452
N 9.5174 37.9736 26.3085
H 8.0321 39.7334 26.2947
C 3.1502 35.0226 25.8241
N 1.7761 35.6463 25.7933
C 4.3988 35.9178 25.9184
C 4.2464 37.4489 25.9817
C 5.4954 38.3430 26.0822
C 6.8963 37.7063 26.1245
C 7.0498 36.1756 26.0524
C 5.8003 35.2812 25.9506
H 3.2088 37.9203 25.9558
H 3.2637 33.8893 25.7762
H 5.9127 34.1480 25.8977
H 5.3828 39.4763 26.1308
H 8.0880 35.7051 26.0782
O 11.061490636348571 39.30409047976325 26.6358
C 10.632149587897484 38.07745415871495 26.295699999999997
O 11.38267385659287 37.19245349651223 26.0093
H 12.073794009761679 39.24229104468133 26.828599999999998
X 11.558459810930449 38.83811156606292 26.476192321250302
O 0.2284659758382095 34.31993287990964 26.1206
C 0.6610773625365225 35.5454196354884 25.780499999999996
O -0.08708363177499945 36.43241905859464 25.4941
H -0.7836689558475967 34.384432260227356 26.313399999999998
X -0.26658414944485087 34.78114986945918 25.642276961952387
0 1 D
0 2 S
3 12 S
3 4 D
3 5 S
5 6 A
5 10 A
6 11 S
6 7 A
7 8 A
7 14 S
8 9 A
9 15 S
9 10 A
10 13 S
0 8 S
16 17 S
17 18 A
16 19 S
1 17 S
20 19 S
21 22 S
22 23 A
21 24 S
4 22 S
25 24 S
