24
mol to xyz file
C 8.1446 38.6000 26.2452
N 9.5174 37.9736 26.3085
H 8.0321 39.7334 26.2947
C 3.1502 35.0226 25.8241
N 1.7761 35.6463 25.7933
C 4.3988 35.9178 25.9184
C 4.2464 37.4489 25.9817
C 5.4954 38.3430 26.0822
C 6.8963 37.7063 26.1245
C 7.0498 36.1756 26.0524
C 5.8003 35.2812 25.9506
H 3.2088 37.9203 25.9558
H 3.2637 33.8893 25.7762
H 5.9127 34.1480 25.8977
H 5.3828 39.4763 26.1308
H 8.0880 35.7051 26.0782
N 10.378274115568553 38.53381840129012 26.3248
H 10.800748608542637 38.42257900725054 25.3951
H 11.01048467580565 38.054201494243785 26.9772
X 11.558459810930449 38.83811156606292 26.476192321250302
N 0.9151587657788043 35.086184751843255 25.8096
H 0.49269760443501864 35.197474765573425 24.8799
H 0.2830056773183238 35.56587740631055 26.462
X -0.26658414944485087 34.78114986945918 25.642276961952387
0 1 D
0 2 S
3 12 S
3 4 D
3 5 S
5 6 A
5 10 A
6 11 S
6 7 A
7 8 A
7 14 S
8 9 A
9 15 S
9 10 A
10 13 S
0 8 S
16 17 S
16 18 S
1 17 S
19 18 S
20 21 S
20 22 S
4 21 S
23 22 S
