34
mol to xyz file
C 11.3681 41.0252 26.0454
N 12.7496 40.4169 26.0824
C 10.1277 40.1135 26.0178
C 10.2988 38.5829 26.0117
C 9.0586 37.6700 25.9992
C 7.6484 38.2879 25.9962
C 7.4768 39.8180 25.9933
C 8.7171 40.7311 26.0013
H 11.3432 38.1259 26.0183
H 11.2435 42.1583 26.0429
H 8.5911 41.8640 25.9995
H 9.1841 36.5369 25.9963
H 6.4321 40.2743 25.9862
C 2.6933 34.6338 26.0348
N 1.3110 35.2397 26.0803
C 3.9330 35.5470 26.0176
C 3.7609 37.0776 26.0238
C 4.9998 37.9917 26.0131
C 6.4099 37.3746 25.9977
C 6.5825 35.8446 25.9871
C 5.3437 34.9302 25.9931
H 2.7160 37.5335 26.0366
H 2.8193 33.5009 26.0221
H 5.4707 33.7973 25.9828
H 4.8737 39.1248 26.0206
H 7.6277 35.3893 25.9775
N 13.526196597754918 41.0890953766246 26.0987
H 13.959881372870354 41.03640367108117 25.169
H 14.217812782160111 40.70000718164973 26.7511
X 14.720607023763462 41.47918509797367 26.09597876980114
N 0.534012373279785 34.567956650257194 26.096600000000002
H 0.1003583336770173 34.62090071447786 25.166900000000002
H -0.15737727783856093 34.95744724106324 26.749000000000002
X -0.6596760393078279 34.17697028367157 26.089477075508537
0 9 S
0 2 S
0 1 D
2 7 A
2 3 A
3 4 A
3 8 S
4 5 A
4 11 S
5 6 A
6 12 S
6 7 A
7 10 S
13 22 S
13 14 D
13 15 S
15 20 A
15 16 A
16 21 S
16 17 A
17 18 A
17 24 S
18 19 A
19 20 A
19 25 S
20 23 S
5 18 S
26 27 S
26 28 S
1 27 S
29 28 S
30 31 S
30 32 S
14 31 S
33 32 S
