36
mol to xyz file
C 12.2879 9.3630 0.0000
N 11.7609 10.6349 0.0000
C 10.4177 10.9333 0.0000
C 9.4605 9.9942 0.0000
C 6.5137 11.9673 0.0000
C 7.8097 11.6221 0.0000
C 8.7582 12.5757 0.0000
C 8.1762 10.3357 0.0000
C 10.0498 12.2179 0.0000
O 9.2202 14.6935 0.0000
H 5.2443 16.8441 0.0000
H 7.4588 16.2442 0.0000
H 4.1380 12.8868 0.0000
H 12.3524 11.4263 0.0000
C 2.6286 16.4731 0.0000
N 3.1556 15.2012 0.0000
C 4.4988 14.9028 0.0000
C 5.4560 15.8419 0.0000
C 8.4028 13.8688 0.0000
C 7.1068 14.2140 0.0000
C 6.1583 13.2604 0.0000
C 6.7403 15.5004 0.0000
C 4.8667 13.6182 0.0000
O 5.6963 11.1426 0.0000
H 9.6722 8.9920 0.0000
H 7.4577 9.5919 0.0000
H 10.7785 12.9493 0.0000
H 2.5641 14.4098 0.0000
N 1.6647834415966272 16.828074001509233 0.016300000000000002
H 1.5013005250099396 17.233206369981946 -0.9134
H 1.6711304326634364 17.621599228395183 0.6687000000000001
X 1.909675684146633 17.930900344302117 0.0
N 13.251711845153366 9.008013201453823 0.016300000000000002
H 13.415189382583195 8.602878662373431 -0.9134
H 13.245354318060956 8.21448805890995 0.6687000000000001
X 13.00681237452981 7.905283433024975 0.0
0 1 D
1 13 S
1 2 S
2 8 A
2 3 A
3 24 S
3 7 A
4 23 D
4 5 S
4 20 S
5 6 A
5 7 A
6 18 S
6 8 A
7 25 S
8 26 S
9 18 D
10 17 S
11 21 S
12 22 S
14 15 D
15 27 S
15 16 S
16 17 A
16 22 A
17 21 A
18 19 S
19 21 A
19 20 A
20 22 A
28 29 S
28 30 S
29 14 S
31 30 S
32 33 S
32 34 S
0 33 S
35 34 S
