38
mol to xyz file
C -3.1110 0.4035 -0.0038
C -2.3439 -0.9318 -0.0075
C -0.8039 -0.9353 -0.0046
C -0.0310 0.3967 0.0050
C -0.7981 1.7320 0.0073
C -2.3380 1.7353 0.0013
C -0.0255 3.0640 0.0176
C 1.5144 3.0607 0.0295
C 2.2815 1.7253 0.0266
C 1.5088 0.3934 0.0121
C 2.2760 -0.9418 0.0042
C 3.8160 -0.9450 0.0079
C 4.5887 0.3870 0.0235
C 3.8216 1.7220 0.0364
C 1.5033 -2.2739 -0.0084
C -0.0367 -2.2707 -0.0115
C -4.6509 0.4075 -0.0043
N -5.4014 1.7177 0.0004
C 6.1287 0.3836 0.0236
N 6.8800 -0.9259 -0.0004
H -2.9160 -1.9178 -0.0118
H -2.9058 2.7238 0.0015
H -0.5935 4.0524 0.0175
H 2.0865 4.0467 0.0391
H 4.3842 -1.9333 -0.0010
H 4.3937 2.7079 0.0502
H 2.0714 -3.2623 -0.0147
H -0.6087 -3.2567 -0.0191
H -5.2239 -0.5780 -0.0079
H 6.7013 1.3693 0.0394
N -6.420959953295027 1.5934164466349576 0.0167
H -6.751393892186935 1.879200127114405 -0.913
H -6.777647522289608 2.3022863558035835 0.6691
X -7.617827302262909 2.036080256312869 0.0007626850411987558
N 7.899589568891948 -0.8018596396057702 0.0159
H 8.229955332140708 -1.0877221283535312 -0.9138000000000001
H 8.256108045311363 -1.510814607125978 0.6683
X 9.096397847164397 -1.2438171973449361 -0.00182836006413775
0 5 A
0 16 S
0 1 A
1 2 A
1 20 S
2 15 A
2 3 A
3 9 A
3 4 A
4 5 A
4 6 A
5 21 S
6 22 S
6 7 A
7 23 S
7 8 A
8 9 A
8 13 A
9 10 A
10 11 A
10 14 A
11 24 S
11 12 A
12 18 S
12 13 A
13 25 S
14 26 S
14 15 A
15 27 S
16 28 S
16 17 D
18 29 S
18 19 D
30 31 S
30 32 S
17 31 S
33 32 S
34 35 S
34 36 S
19 35 S
37 36 S
