38
mol to xyz file
C -3.1226 -0.3509 0.0781
C -1.5834 -0.3112 0.0538
C -0.0439 -0.2780 0.0412
C 1.4959 -0.2512 0.0422
C -3.8753 -1.5102 -0.6013
C -5.4130 -1.5705 -0.5401
C -6.1979 -0.4726 0.2013
C -5.4464 0.6956 0.8656
C -3.9090 0.7576 0.8020
C 2.2434 0.8915 0.7540
C 3.7824 0.8953 0.7992
C 4.5739 -0.2442 0.1310
C 3.8277 -1.3754 -0.5999
C 2.2882 -1.3788 -0.6458
H -3.2939 -2.3277 -1.1427
H -5.9699 -2.4314 -1.0382
N -7.7036 -0.5422 0.2807
H -6.0284 1.5126 1.4075
H -3.3523 1.6202 1.2976
H 1.6566 1.7311 1.2542
H 4.3353 1.7381 1.3318
N 6.0822 -0.2574 0.1969
H 4.4157 -2.2121 -1.1035
H 1.7353 -2.2186 -1.1829
C -8.4643 0.5159 1.0427
C 6.8524 -1.3872 -0.4434
H 6.2947 -2.2258 -0.9777
H -7.9000 1.3615 1.5590
O -10.397578584597985 -0.1297428767784916 1.37
C -9.535182407062221 0.8424933254746976 1.0299
O -9.894083924237075 1.9459889307987914 0.7435
H -11.310852501008455 0.3112877838385284 1.5628000000000002
X -10.694480666665674 0.6733322026264994 1.218651310048328
O 8.78230391717332 -0.7315387456322571 -0.11609999999999998
C 7.924961898642883 -1.7082347388984118 -0.4562
O 8.289581932541552 -2.8098540383298145 -0.7425999999999999
H 9.697852980928738 -1.1678267260495185 0.07670000000000005
X 9.08297880038923 -1.577265867732551 -0.5599669085699882
0 1 S
0 8 A
0 4 A
1 2 T
2 3 S
3 9 A
3 13 A
4 5 A
4 14 S
5 15 S
5 6 A
6 16 S
6 7 A
7 17 S
7 8 A
8 18 S
9 19 S
9 10 A
10 20 S
10 11 A
11 21 S
11 12 A
12 13 A
12 22 S
13 23 S
16 24 D
21 25 D
25 26 S
24 27 S
28 29 S
29 30 A
28 31 S
24 29 S
32 31 S
33 34 S
34 35 A
33 36 S
25 34 S
37 36 S
