40
mol to xyz file
N 1.6717 15.9364 -0.0062
C 1.3834 17.4184 -0.0077
C 3.1007 15.4499 -0.0007
C 4.2574 16.4661 0.0061
C 5.7162 15.9721 0.0090
C 6.0172 14.4619 0.0049
C 4.8603 13.4457 0.0001
C 3.4017 13.9397 -0.0025
H 4.0335 17.5840 0.0087
H 2.5450 13.1877 -0.0062
H 6.5728 16.7243 0.0137
H 5.0843 12.3278 -0.0020
C 7.4744 13.9650 0.0043
N 13.5665 10.4677 0.0048
C 13.8496 8.9847 0.0083
C 12.1392 10.9588 0.0002
C 10.9797 9.9459 -0.0040
C 9.5225 10.4438 -0.0059
C 9.2255 11.9548 -0.0028
C 10.3850 12.9680 -0.0006
C 11.8424 12.4699 0.0007
H 12.9861 8.2402 0.0075
H 11.2006 8.8274 -0.0054
H 12.7011 13.2196 0.0027
H 8.6639 9.6940 -0.0087
H 10.1641 14.0865 0.0001
C 7.7691 12.4540 -0.0016
H 8.3340 14.7140 0.0074
H 6.9089 11.7057 -0.0041
H 2.2443 18.1660 -0.0050
O -0.6319809763568935 17.72280159352201 0.31960000000000005
C 0.5782722617894114 18.196359931592816 -0.020499999999999997
O 0.7605930459691764 19.342340726220755 -0.30689999999999995
H -1.2446952229902677 18.530983839041234 0.5124000000000001
X -0.5679444826507308 18.503329635787857 -0.012324739924795727
O 15.865085805345949 8.680993269009406 0.3356
C 14.654995908199366 8.207017699149763 -0.004499999999999997
O 14.47307023553011 7.060974113755281 -0.2909
H 16.478078653174173 7.873022317482406 0.5284000000000001
X 15.800341202975961 7.897609223764098 0.012364415789533935
0 2 S
0 1 D
2 3 A
2 7 A
3 4 A
3 8 S
4 5 A
4 10 S
5 6 A
5 12 S
6 11 S
6 7 A
7 9 S
12 26 D
12 27 S
13 15 S
13 14 D
14 21 S
15 20 A
15 16 A
16 22 S
16 17 A
17 18 A
17 24 S
18 19 A
18 26 S
19 25 S
19 20 A
20 23 S
26 28 S
1 29 S
30 31 S
31 32 A
30 33 S
1 31 S
34 33 S
35 36 S
36 37 A
35 38 S
14 36 S
39 38 S
