36
mol to xyz file
N 1.9629 16.3431 -0.0064
C 1.6814 17.8264 -0.0073
C 3.3898 15.8510 -0.0005
C 4.5494 16.8635 0.0063
C 6.0066 16.3658 0.0087
C 6.3034 14.8545 0.0040
C 5.1431 13.8416 -0.0012
C 3.6858 14.3397 -0.0033
H 4.3285 17.9820 0.0091
H 2.8268 13.5902 -0.0073
H 6.8653 17.1157 0.0143
H 5.3635 12.7231 -0.0042
N 13.7863 10.9357 0.0065
C 14.0673 9.4524 0.0078
C 12.3593 11.4279 0.0014
C 11.1995 10.4153 -0.0055
C 9.7424 10.9135 -0.0073
C 9.4457 12.4246 -0.0028
C 10.6058 13.4375 0.0019
C 12.0632 12.9392 0.0034
H 13.2026 8.7093 0.0028
H 11.4202 9.2968 -0.0078
H 12.9222 13.6886 0.0067
H 8.8835 10.1640 -0.0121
H 10.3855 14.5560 0.0048
N 7.7321 14.3656 0.0043
N 8.0170 12.9134 -0.0023
H 2.5457 18.5700 -0.0028
N 0.7042633539463183 18.142869390208535 0.009000000000000001
H 0.5248413619865586 18.54119921435078 -0.9207000000000001
H 0.6791338449135049 18.936022009680833 0.6614
X -0.2692229262415433 18.914170290837383 -0.01286477750334067
N 15.044455142519462 9.135987725510265 0.0241
H 15.223900417179214 8.73766838954691 -0.9056000000000001
H 15.069631012530976 8.34283657625234 0.6765
X 16.01776336255192 8.364389699017364 0.01296510511426599
0 1 D
0 2 S
2 7 A
2 3 A
3 8 S
3 4 A
4 5 A
4 10 S
5 25 S
5 6 A
6 11 S
6 7 A
7 9 S
12 14 S
12 13 D
13 20 S
14 15 A
14 19 A
15 16 A
15 21 S
16 23 S
16 17 A
17 18 A
17 26 S
18 19 A
18 24 S
19 22 S
25 26 D
1 27 S
28 29 S
28 30 S
1 29 S
31 30 S
32 33 S
32 34 S
13 33 S
35 34 S
