29
mol to xyz file
C 0.0586 0.1082 -0.3774
N 0.7904 -0.7933 0.6278
C 0.6294 -0.2719 2.0251
C -0.2128 0.9759 1.9499
N -0.5570 1.2033 0.5076
N 1.0026 0.6753 -1.4480
C 0.5534 0.2742 -2.8218
C -0.6927 -0.5581 -2.6662
N -0.9909 -0.6552 -1.1992
O 2.565348450631361 -0.05211923327022272 -2.4945000000000004
C 1.350012629507572 -0.5124769657928411 -2.8346000000000005
O 1.1552296397611772 -1.6564054761926195 -3.1210000000000004
H 3.1692300423397524 -0.8669224691472899 -2.3017000000000003
X 1.3473657556627499 0.5380387026137781 -4.893727332167876
O 0.8997932449552976 -1.8302580384416667 -2.3389
C -0.3849919645958389 -1.6345609119460456 -2.6790000000000003
O -1.1163565425431523 -2.53545974318291 -2.9654
H 1.0257924638280453 -2.8365887429535865 -2.1461
X -1.2579420963140202 -1.217261408657406 -4.670115960091257
O 2.5723163966382456 -0.8879330232010729 2.3524000000000003
C 1.3028676280035163 -1.1662677565919495 2.0123
O 0.9434615220185218 -2.2695991215864844 1.7259000000000002
H 3.0510116645903893 -1.7820404722474534 2.5452000000000004
X 1.5939244732002615 -0.8295486554336947 3.9615356733477567
O -1.6898310661337992 2.3804640034101867 2.2772
C -0.42666983372570905 2.074859518918753 1.9371
O 0.3795555091341898 2.909433390143127 1.6507
H -1.7287060226076538 3.3939066647182434 2.47
X -0.30205735002636247 2.0351971148406953 3.884474916644596
0 5 S
0 1 S
0 4 S
0 8 S
1 2 D
2 3 S
3 4 D
5 6 D
6 7 S
7 8 D
9 10 S
10 11 A
9 12 S
6 10 S
13 12 S
14 15 S
15 16 A
14 17 S
7 15 S
18 17 S
19 20 S
20 21 A
19 22 S
2 20 S
23 22 S
24 25 S
25 26 A
24 27 S
3 25 S
28 27 S
