25
mol to xyz file
C 0.0586 0.1082 -0.3774
N 0.7904 -0.7933 0.6278
C 0.6294 -0.2719 2.0251
C -0.2128 0.9759 1.9499
N -0.5570 1.2033 0.5076
N 1.0026 0.6753 -1.4480
C 0.5534 0.2742 -2.8218
C -0.6927 -0.5581 -2.6662
N -0.9909 -0.6552 -1.1992
N 0.7278384065264557 1.286385824010844 -2.8055
H 1.096637541023973 1.5205782628168014 -3.7352
H 1.509375744088902 1.4239429394058791 -2.1531
X 1.3473657556627499 0.5380387026137781 -4.893727332167876
N -0.748598879832054 -1.5836848162065982 -2.6498999999999997
H -1.0877558692823714 -1.8590598995147969 -3.5795999999999997
H -1.5089150403185325 -1.8109333719844058 -1.9974999999999996
X -1.2579420963140202 -1.217261408657406 -4.670115960091257
N 1.224582399336473 -1.10898232063524 2.0414000000000003
H 1.130828956745173 -1.5356779873606943 1.1117000000000004
H 0.7713977420666043 -1.7604009543994206 2.6938000000000004
X 1.5939244732002615 -0.8295486554336947 3.9615356733477567
N -0.235023585370524 2.0027665990542682 1.9662
H 0.08221921170474356 2.3031262296704025 1.0364999999999998
H 0.5058181840704686 2.2871537342266226 2.6186
X -0.30205735002636247 2.0351971148406953 3.884474916644596
0 5 S
0 1 S
0 4 S
0 8 S
1 2 D
2 3 S
3 4 D
5 6 D
6 7 S
7 8 D
9 10 S
9 11 S
6 10 S
12 11 S
13 14 S
13 15 S
7 14 S
16 15 S
17 18 S
17 19 S
2 18 S
20 19 S
21 22 S
21 23 S
3 22 S
24 23 S
