36
mol to xyz file
C 12.1733 3.8130 27.6218
C 13.3326 3.8130 28.2884
C 16.8107 3.8130 27.6218
C 15.6514 3.8130 28.2884
H 12.1290 3.8128 26.5398
H 16.8552 3.8128 26.5398
O 19.1874 3.8130 27.7957
C 11.0429 3.8130 28.3174
O 9.7966 3.8130 27.7957
C 17.9411 3.8130 28.3174
C 14.4920 3.8130 27.6218
H 14.4917 3.8126 26.5343
O 9.7966 3.8130 30.1723
C 17.9411 3.8130 29.6506
O 19.1874 3.8130 30.1723
C 11.0429 3.8130 29.6506
B 9.0430 3.8130 28.9840
C 14.4920 3.8130 30.3462
H 14.4917 3.8138 31.4332
C 16.8107 3.8130 30.3462
C 15.6514 3.8130 29.6796
C 12.1733 3.8130 30.3462
C 13.3326 3.8130 29.6796
B 19.9410 3.8130 28.9840
H 16.8549 3.8136 31.4286
H 12.1291 3.8134 31.4280
O 7.201560373451133 2.939203163329386 29.311300000000003
C 7.9405770288615845 4.008232995946769 28.9712
O 7.451377500335118 5.0604671292505135 28.684800000000003
H 6.241815062622042 3.2670235842027195 29.5041
X 6.793724588167162 3.813 28.96138859108996
O 21.783712499990497 4.684109322862964 29.311300000000003
C 21.043136961028516 3.6161588225628933 28.9712
O 21.530800803063933 2.5632120873615056 28.684800000000003
H 22.742978513019125 4.354889022382935 29.5041
X 22.190275411832836 3.813 28.96138859108996
0 7 A
0 4 S
0 1 A
1 10 A
2 5 S
2 3 A
2 9 A
3 10 A
6 9 S
7 8 S
10 11 S
12 16 S
12 15 S
13 14 S
13 19 A
14 23 S
15 21 A
17 18 S
17 20 A
17 22 A
19 24 S
19 20 A
21 25 S
21 22 A
1 22 A
3 20 A
6 23 S
7 15 A
8 16 S
9 13 A
26 27 S
27 28 A
26 29 S
16 27 S
30 29 S
31 32 S
32 33 A
31 34 S
23 32 S
35 34 S
