34
mol to xyz file
C 12.1733 3.8130 27.6218
C 13.3326 3.8130 28.2884
C 16.8107 3.8130 27.6218
C 15.6514 3.8130 28.2884
H 12.1290 3.8128 26.5398
H 16.8552 3.8128 26.5398
O 19.1874 3.8130 27.7957
C 11.0429 3.8130 28.3174
O 9.7966 3.8130 27.7957
C 17.9411 3.8130 28.3174
C 14.4920 3.8130 27.6218
H 14.4917 3.8126 26.5343
O 9.7966 3.8130 30.1723
C 17.9411 3.8130 29.6506
O 19.1874 3.8130 30.1723
C 11.0429 3.8130 29.6506
B 9.0430 3.8130 28.9840
C 14.4920 3.8130 30.3462
H 14.4917 3.8138 31.4332
C 16.8107 3.8130 30.3462
C 15.6514 3.8130 29.6796
C 12.1733 3.8130 30.3462
C 13.3326 3.8130 29.6796
B 19.9410 3.8130 28.9840
H 16.8549 3.8136 31.4286
H 12.1291 3.8134 31.4280
N 8.060275904356674 3.5143325397000744 29.000300000000003
H 7.6854124922452405 3.7386901164835953 28.070600000000002
H 7.586413647226044 4.150867795021462 29.652700000000003
X 6.793724588167162 3.813 28.96138859108996
N 20.924604558337823 4.108754920190788 29.000300000000003
H 21.29880168692474 3.8832878295604636 28.070600000000002
H 21.396579059152895 3.4708186846778957 29.652700000000003
X 22.190275411832836 3.813 28.96138859108996
0 7 A
0 4 S
0 1 A
1 10 A
2 5 S
2 3 A
2 9 A
3 10 A
6 9 S
7 8 S
10 11 S
12 16 S
12 15 S
13 14 S
13 19 A
14 23 S
15 21 A
17 18 S
17 20 A
17 22 A
19 24 S
19 20 A
21 25 S
21 22 A
1 22 A
3 20 A
6 23 S
7 15 A
8 16 S
9 13 A
26 27 S
26 28 S
16 27 S
29 28 S
30 31 S
30 32 S
23 31 S
33 32 S
