35
mol to xyz file
C 0.0000 1.5619 -2.6951
C 0.0000 0.2282 -1.9251
C 0.0000 0.2282 -0.3851
C 0.0000 1.5619 0.3849
C 0.0000 2.8956 -0.3851
C 0.0000 2.8956 -1.9251
O -0.0000 4.3602 -2.4009
B -0.0000 5.2654 -1.1551
O -0.0000 4.3602 0.0908
O -0.0000 -1.2364 0.0908
B -0.0000 -2.1416 -1.1551
O -0.0000 -1.2364 -2.4009
N -0.0000 4.2293 1.9249
C -0.0000 2.8956 2.6949
C -0.0000 1.5619 1.9249
O -0.0000 1.5619 5.0049
C -0.0000 2.8956 4.2349
O -0.0000 4.2293 5.0049
H -0.0000 1.5619 -3.8351
H -1.0446 4.5183 1.6856
H 0.4680 5.0177 2.5506
H -1.1400 2.8956 2.6949
H 0.9078 0.9647 2.2697
H -0.9308 0.9641 2.2003
H 0.4680 1.7095 6.0006
O -0.8829096979724894 7.102487715713686 -0.8277999999999999
C 0.18976854102800506 6.368776740209844 -1.1679
O 1.2395659739125935 6.863183657545077 -1.4543
H -0.5598484494779955 8.063845463756099 -0.6349999999999999
X -0.0 7.5113 -1.2335
O 0.8829096979724893 -3.9786877157136855 -0.8277999999999999
C -0.18976854102800528 -3.244976740209844 -1.1679
O -1.2395659739125942 -3.739383657545077 -1.4543
H 0.5598484494779955 -4.940045463756098 -0.6349999999999999
X -0.0 -4.3875 -1.0767
0 1 A
0 18 S
0 5 A
1 2 A
1 11 S
2 3 A
2 9 S
3 14 S
3 4 A
4 5 A
4 8 S
5 6 S
6 7 S
7 8 S
9 10 S
10 11 S
12 19 S
12 13 S
12 20 S
13 21 S
13 16 S
13 14 S
14 23 S
14 22 S
15 16 S
15 24 S
16 17 D
25 26 S
26 27 A
25 28 S
7 26 S
29 28 S
30 31 S
31 32 A
30 33 S
10 31 S
34 33 S
