33
mol to xyz file
C 0.0000 1.5619 -2.6951
C 0.0000 0.2282 -1.9251
C 0.0000 0.2282 -0.3851
C 0.0000 1.5619 0.3849
C 0.0000 2.8956 -0.3851
C 0.0000 2.8956 -1.9251
O -0.0000 4.3602 -2.4009
B -0.0000 5.2654 -1.1551
O -0.0000 4.3602 0.0908
O -0.0000 -1.2364 0.0908
B -0.0000 -2.1416 -1.1551
O -0.0000 -1.2364 -2.4009
N -0.0000 4.2293 1.9249
C -0.0000 2.8956 2.6949
C -0.0000 1.5619 1.9249
O -0.0000 1.5619 5.0049
C -0.0000 2.8956 4.2349
O -0.0000 4.2293 5.0049
H -0.0000 1.5619 -3.8351
H -1.0446 4.5183 1.6856
H 0.4680 5.0177 2.5506
H -1.1400 2.8956 2.6949
H 0.9078 0.9647 2.2697
H -0.9308 0.9641 2.2003
H 0.4680 1.7095 6.0006
N -0.28915823153245485 6.250964009659962 -1.1388
H -0.061189118686563904 6.623642132962441 -2.0685000000000002
H 0.3519258669587561 6.718653809272602 -0.48640000000000005
X -0.0 7.5113 -1.2335
N 0.28915823153245473 -3.1271640096599627 -1.1388
H 0.06118911868656358 -3.499842132962441 -2.0685000000000002
H -0.3519258669587567 -3.5948538092726015 -0.48640000000000005
X -0.0 -4.3875 -1.0767
0 1 A
0 18 S
0 5 A
1 2 A
1 11 S
2 3 A
2 9 S
3 14 S
3 4 A
4 5 A
4 8 S
5 6 S
6 7 S
7 8 S
9 10 S
10 11 S
12 19 S
12 13 S
12 20 S
13 21 S
13 16 S
13 14 S
14 23 S
14 22 S
15 16 S
15 24 S
16 17 D
25 26 S
25 27 S
7 26 S
28 27 S
29 30 S
29 31 S
10 30 S
32 31 S
