30
mol to xyz file
C 0.5152 0.2801 -1.4004
C -0.1672 -1.0802 -1.1711
C -0.7143 -1.4417 0.2228
C -0.5936 -0.4389 1.3842
C 0.0824 0.9241 1.1532
C 0.6363 1.2838 -0.2384
C 1.0842 0.6321 -2.7881
H -0.2596 -1.8241 -2.0302
C -1.3688 -2.8138 0.4588
H -0.9986 -0.7080 2.4153
C 0.2160 1.9247 2.3157
H 1.1400 2.2923 -0.4075
N 0.9841 -0.3641 -3.9188
N -1.8700 -3.1855 1.8336
N 0.9020 3.2508 2.0918
H 1.5860 1.6413 -2.9599
H -1.4667 -3.5539 -0.4025
H -0.1961 1.6612 3.3454
N 1.2379212742575616 -1.359350551737736 -3.9025
H 0.9968045847375002 -1.7236603677390159 -4.8322
H 0.5805636006859123 -1.8038766578287833 -3.2500999999999998
X 1.6304643283078426 -0.2919651884443157 -6.044958012251995
N -2.072485952065613 -4.192450018231333 1.8498999999999999
H -2.4476478063065406 -4.4163081945897344 0.9201999999999998
H -2.857542580603075 -4.308245786674712 2.5023
X -2.8696813029683614 -5.006695449099057 2.6242617678227145
N 0.902442293829436 4.277906958586188 2.1081000000000003
H 1.2262360483914518 4.571192663158765 1.1784000000000003
H 1.6493793920069093 4.545876250420562 2.7605000000000004
X 1.3130799312829309 4.979329169973946 3.4267648693846398
0 5 A
0 6 S
0 1 A
1 7 S
1 2 A
2 3 A
2 8 S
3 9 S
3 4 A
4 5 A
4 10 S
5 11 S
6 15 S
6 12 D
8 16 S
8 13 D
10 14 D
10 17 S
18 19 S
18 20 S
12 19 S
21 20 S
22 23 S
22 24 S
13 23 S
25 24 S
26 27 S
26 28 S
14 27 S
29 28 S
