33
mol to xyz file
C 0.5152 0.2801 -1.4004
C -0.1672 -1.0802 -1.1711
C -0.7143 -1.4417 0.2228
C -0.5936 -0.4389 1.3842
C 0.0824 0.9241 1.1532
C 0.6363 1.2838 -0.2384
C 1.0842 0.6321 -2.7881
H -0.2596 -1.8241 -2.0302
C -1.3688 -2.8138 0.4588
H -0.9986 -0.7080 2.4153
C 0.2160 1.9247 2.3157
H 1.1400 2.2923 -0.4075
N 0.9841 -0.3641 -3.9188
N -1.8700 -3.1855 1.8336
N 0.9020 3.2508 2.0918
H 1.5860 1.6413 -2.9599
H -1.4667 -3.5539 -0.4025
H -0.1961 1.6612 3.3454
O 2.9393396768073856 -0.9398244273418914 -3.5915000000000004
C 1.675917933510926 -1.2443501217680524 -3.9316000000000004
O 1.3394040718476636 -2.3548775959479933 -4.218
H 3.43642151484965 -1.8238419250694666 -3.3987000000000003
X 1.6304643283078426 -0.2919651884443157 -6.044958012251995
O -1.7889332516840697 -5.22212686624661 2.1609
C -2.4821954289736503 -4.12287350439607 1.8208
O -3.6419978751623576 -4.159902355508284 1.5344
H -2.46708923337808 -5.976236775008345 2.3537
X -2.8696813029683614 -5.006695449099057 2.6242617678227145
O 0.1314145060698888 5.137760202692279 2.4191
C 1.1579228636139007 4.340733859406001 2.0789999999999997
O 2.2356093066212193 4.770971910440813 1.7926
H 0.5118284482140889 6.077899832014599 2.6119
X 1.3130799312829309 4.979329169973946 3.4267648693846398
0 5 A
0 6 S
0 1 A
1 7 S
1 2 A
2 3 A
2 8 S
3 9 S
3 4 A
4 5 A
4 10 S
5 11 S
6 15 S
6 12 D
8 16 S
8 13 D
10 14 D
10 17 S
18 19 S
19 20 A
18 21 S
12 19 S
22 21 S
23 24 S
24 25 A
23 26 S
13 24 S
27 26 S
28 29 S
29 30 A
28 31 S
14 29 S
32 31 S
