50
mol to xyz file
N 15.9936 10.6508 3.3001
N 15.9912 6.2234 3.3179
C 14.7763 11.5688 3.3166
C 15.2340 13.0337 3.3139
C 17.2117 11.5682 3.2866
C 16.7554 13.0335 3.2932
C 17.2089 5.3055 3.3248
C 16.7517 3.8405 3.3262
C 14.7732 5.3058 3.3161
C 15.2302 3.8406 3.3206
H 14.5588 13.9523 3.3246
H 17.4312 13.9521 3.2859
H 17.4270 2.9217 3.3300
H 14.5546 2.9221 3.3206
N 13.7490 8.4380 3.3183
H 14.8592 8.4377 3.3163
N 18.2365 8.4363 3.2990
H 17.1265 8.4366 3.2964
C 12.8595 9.6681 3.3238
C 11.3939 9.2039 3.3224
C 19.1270 9.6656 3.2863
C 20.5920 9.2007 3.2921
C 19.1259 7.2064 3.3156
C 20.5913 7.6708 3.3123
C 12.8583 7.2084 3.3154
C 11.3932 7.6737 3.3167
H 10.4743 9.8779 3.3236
C 13.2957 11.1449 3.3289
H 21.5125 9.8739 3.2836
C 18.6918 11.1427 3.2761
H 21.5112 6.9969 3.3214
C 18.6894 5.7297 3.3286
H 10.4727 7.0006 3.3121
C 13.2930 5.7310 3.3129
N 12.803060003159697 4.8282776177051305 3.3292
H 12.378622717076494 4.724779355969363 2.3995
H 12.018702566803157 4.9487183999684365 3.9816000000000003
X 11.705035649843675 4.137045588920337 3.311049054184154
N 19.588821649979934 5.233726618106 3.3449
H 19.689475682418607 4.8086058520243675 2.4152
H 19.463131737196484 4.450193200934475 3.9973
X 20.27609817515743 4.134499986292964 3.340911635889714
N 12.396799652683452 11.641817564183627 3.3452
H 12.29659208231925 12.067043789670373 2.4155
H 12.523312261140866 12.425218566162373 3.9976000000000003
X 11.70912004041896 12.740117067257199 3.3424290372197327
N 19.181153535368075 12.045740429561583 3.2924
H 19.605523505215544 12.149514360255464 2.3627000000000002
H 19.965589037876917 11.925809147555176 3.9448000000000003
X 20.279774373685584 12.736646865347097 3.254906566399037
0 4 A
0 2 A
1 6 A
1 8 A
2 27 A
2 3 A
3 10 S
3 5 A
4 29 A
4 5 A
5 11 S
6 31 A
6 7 A
7 9 A
7 12 S
8 33 A
8 9 A
9 13 S
14 24 A
14 15 S
14 18 A
16 22 A
16 17 S
16 20 A
18 19 A
18 27 A
19 26 S
19 25 A
20 21 A
20 29 A
21 28 S
21 23 A
22 23 A
22 31 A
23 30 S
24 25 A
24 33 A
25 32 S
34 35 S
34 36 S
33 35 S
37 36 S
38 39 S
38 40 S
31 39 S
41 40 S
42 43 S
42 44 S
27 43 S
45 44 S
46 47 S
46 48 S
29 47 S
49 48 S
