54
mol to xyz file
N 15.9936 10.6508 3.3001
N 15.9912 6.2234 3.3179
C 14.7763 11.5688 3.3166
C 15.2340 13.0337 3.3139
C 17.2117 11.5682 3.2866
C 16.7554 13.0335 3.2932
C 17.2089 5.3055 3.3248
C 16.7517 3.8405 3.3262
C 14.7732 5.3058 3.3161
C 15.2302 3.8406 3.3206
H 14.5588 13.9523 3.3246
H 17.4312 13.9521 3.2859
H 17.4270 2.9217 3.3300
H 14.5546 2.9221 3.3206
N 13.7490 8.4380 3.3183
H 14.8592 8.4377 3.3163
N 18.2365 8.4363 3.2990
H 17.1265 8.4366 3.2964
C 12.8595 9.6681 3.3238
C 11.3939 9.2039 3.3224
C 19.1270 9.6656 3.2863
C 20.5920 9.2007 3.2921
C 19.1259 7.2064 3.3156
C 20.5913 7.6708 3.3123
C 12.8583 7.2084 3.3154
C 11.3932 7.6737 3.3167
H 10.4743 9.8779 3.3236
C 13.2957 11.1449 3.3289
H 21.5125 9.8739 3.2836
C 18.6918 11.1427 3.2761
H 21.5112 6.9969 3.3214
C 18.6894 5.7297 3.3286
H 10.4727 7.0006 3.3121
C 13.2930 5.7310 3.3129
O 12.6438097613542 3.798909721558795 3.6401999999999997
C 12.387238741155171 5.072935510777376 3.3000999999999996
O 11.290219129389776 5.451169329204684 3.0137
H 11.741641739771167 3.335584618814564 3.8329999999999997
X 11.705035649843675 4.137045588920337 3.311049054184154
O 20.609637649533116 5.046246871164142 3.6558999999999995
C 19.331249844505514 4.81237720669971 3.3157999999999994
O 18.9335634573878 3.722258686766549 3.0294
H 21.056842826649643 4.135980525768367 3.8486999999999996
X 20.27609817515743 4.134499986292964 3.340911635889714
O 11.375115624424993 11.827378180088683 3.6561999999999997
C 12.653384534437386 12.06189682262213 3.3160999999999996
O 13.050517442102464 13.152217098343662 3.0297
H 10.927448383564869 12.737417372354974 3.8489999999999998
X 11.70912004041896 12.740117067257199 3.3424290372197327
O 19.347590949991847 13.072559849810029 3.6033999999999997
C 19.599805442433002 11.797664462022212 3.2632999999999996
O 20.69552572039136 11.415682888551888 2.9768999999999997
H 20.251337494477436 13.532798345951282 3.7962
X 20.279774373685584 12.736646865347097 3.254906566399037
0 4 A
0 2 A
1 6 A
1 8 A
2 27 A
2 3 A
3 10 S
3 5 A
4 29 A
4 5 A
5 11 S
6 31 A
6 7 A
7 9 A
7 12 S
8 33 A
8 9 A
9 13 S
14 24 A
14 15 S
14 18 A
16 22 A
16 17 S
16 20 A
18 19 A
18 27 A
19 26 S
19 25 A
20 21 A
20 29 A
21 28 S
21 23 A
22 23 A
22 31 A
23 30 S
24 25 A
24 33 A
25 32 S
34 35 S
35 36 A
34 37 S
33 35 S
38 37 S
39 40 S
40 41 A
39 42 S
31 40 S
43 42 S
44 45 S
45 46 A
44 47 S
27 45 S
48 47 S
49 50 S
50 51 A
49 52 S
29 50 S
53 52 S
