70
mol to xyz file
N 15.9892 10.5480 3.2906
H 15.9892 9.5481 3.2906
N 15.9892 6.3142 3.2906
H 15.9892 7.3141 3.2906
C 14.9220 11.3218 3.2906
C 15.3310 12.5773 3.2906
C 17.0563 11.3218 3.2906
C 16.6473 12.5773 3.2906
C 17.0563 5.5404 3.2906
C 16.6473 4.2849 3.2906
C 14.9220 5.5404 3.2906
C 15.3310 4.2849 3.2906
H 14.7426 13.3867 3.2906
H 17.2357 13.3867 3.2906
H 17.2357 3.4755 3.2906
H 14.7426 3.4755 3.2906
N 13.8728 8.4311 3.2906
N 18.1055 8.4311 3.2906
C 13.0980 9.4995 3.2906
C 11.8464 9.0911 3.2906
C 18.8803 9.4995 3.2906
C 20.1319 9.0911 3.2906
C 18.8803 7.3627 3.2906
C 20.1319 7.7711 3.2906
C 13.0980 7.3627 3.2906
C 11.8464 7.7711 3.2906
H 11.0373 9.6796 3.2906
C 13.5489 10.8716 3.2906
C 12.5797 11.8411 3.2906
H 20.9410 9.6796 3.2906
C 18.4294 10.8716 3.2906
H 20.9410 7.1826 3.2906
C 18.4294 5.9906 3.2906
C 19.3986 5.0211 3.2906
H 11.0373 7.1826 3.2906
C 13.5489 5.9906 3.2906
C 12.0952 12.3251 4.4783
H 12.4489 11.9727 5.3444
C 11.1259 13.2950 4.4783
H 10.7741 13.6491 5.3444
C 19.8831 4.5371 4.4783
H 19.5294 4.8895 5.3444
C 20.8524 3.5672 4.4783
H 21.2042 3.2131 5.3444
C 19.8831 4.5371 2.1030
H 19.5294 4.8895 1.2369
C 20.8524 3.5672 2.1030
H 21.2042 3.2131 1.2369
C 12.0952 12.3251 2.1030
H 12.4489 11.9727 1.2369
C 11.1259 13.2950 2.1030
H 10.7741 13.6491 1.2369
C 10.6433 13.7789 3.2906
C 21.3350 3.0833 3.2906
N 9.7927 14.6288 3.2906
N 22.1856 2.2334 3.2906
C 22.3013 0.6397 3.2895
C 9.6770 16.2225 3.2895
H 21.3605 -0.0001 3.2178
H 19.2786 11.6321 3.2906
H 12.6997 5.2301 3.2906
H 10.6178 16.8624 3.3604
N 8.83302575977817 16.80786858631292 3.3058
H 8.776382697915645 17.241054993697592 2.3761
H 9.03819941159041 17.574436484546357 3.9582
X 8.05946658715218 17.715114161238645 3.242344876947451
N 23.145277645257213 0.05433632303832536 3.3058
H 23.20192322693495 -0.3788497548501374 2.3761
H 22.940108452522306 -0.7122327686634627 3.9582
X 23.918833412847817 -0.8529141612386433 3.336144876947451
0 1 S
0 6 A
0 4 A
2 8 A
2 10 A
2 3 S
4 27 A
4 5 A
5 12 S
5 7 A
6 30 A
6 7 A
7 13 S
8 32 A
8 9 A
9 11 A
9 14 S
10 35 A
10 11 A
11 15 S
16 24 A
16 18 A
17 22 A
17 20 A
18 19 A
18 27 A
19 26 S
19 25 A
20 21 A
20 30 A
21 29 S
21 23 A
22 23 A
22 32 A
23 31 S
24 25 A
24 35 A
25 34 S
27 28 S
28 48 A
28 36 A
30 59 S
32 33 S
33 44 A
33 40 A
35 60 S
36 37 S
36 38 A
38 39 S
38 52 A
40 42 A
40 41 S
42 43 S
42 53 A
44 46 A
44 45 S
46 53 A
46 47 S
48 49 S
48 50 A
50 52 A
50 51 S
52 54 S
53 55 S
54 57 D
55 56 D
56 58 S
57 61 S
62 63 S
62 64 S
57 63 S
65 64 S
66 67 S
66 68 S
56 67 S
69 68 S
