106
mol to xyz file
N 15.9922 10.6741 3.2917
H 15.9898 9.5660 3.2918
N 15.9818 6.1943 3.2873
H 15.9835 7.3037 3.2873
C 14.7646 11.5669 3.2917
C 15.2317 13.0312 3.2905
C 17.2224 11.5633 3.2896
C 16.7615 13.0283 3.2895
C 17.2095 5.3009 3.2895
C 16.7423 3.8371 3.2892
C 14.7509 5.3062 3.2845
C 15.2121 3.8408 3.2861
H 14.5600 13.9530 3.2909
H 17.4385 13.9466 3.2880
H 17.4151 2.9159 3.2906
H 14.5376 2.9230 3.2859
N 13.7745 8.4383 3.2911
N 18.2006 8.4311 3.2917
C 12.8590 9.6583 3.2943
C 11.3937 9.2057 3.2941
C 19.1203 9.6461 3.2910
C 20.5851 9.1865 3.2913
C 19.1159 7.2114 3.2923
C 20.5819 7.6645 3.2913
C 12.8547 7.2243 3.2886
C 11.3907 7.6841 3.2911
H 10.4767 9.8837 3.2955
C 13.2878 11.1362 3.2950
C 12.2004 12.2258 3.2903
H 21.5048 9.8610 3.2902
C 18.6978 11.1263 3.2906
C 19.7873 12.2139 3.2909
H 21.4983 6.9856 3.2917
C 18.6866 5.7321 3.2918
C 19.7745 4.6438 3.2917
H 10.4717 7.0103 3.2896
C 13.2754 5.7438 3.2853
C 12.1813 4.6613 3.2909
C 11.6476 12.7682 4.6212
H 12.0413 12.3590 5.6123
C 10.5631 13.8610 4.6152
H 10.1520 14.2634 5.6013
C 20.3218 12.7663 1.9555
H 19.9197 12.3630 0.9689
C 21.3982 13.8680 1.9555
H 21.7935 14.2765 0.9687
C 20.3215 4.0974 4.6218
H 19.9236 4.5056 5.6119
C 21.4044 3.0034 4.6195
H 21.8113 2.5974 5.6071
C 11.6398 4.1033 1.9623
H 12.0473 4.4954 0.9705
C 10.5530 3.0120 1.9709
H 10.1532 2.5961 0.9875
C 20.3089 4.0925 1.9556
H 19.9047 4.4951 0.9693
C 21.3898 2.9958 1.9525
H 21.7853 2.5873 0.9642
C 11.6294 4.1355 4.6286
H 12.0309 4.5504 5.6119
C 10.5384 3.0509 4.6380
H 10.1301 2.6602 5.6286
C 11.6729 12.7785 1.9551
H 12.0833 12.3767 0.9711
C 10.5931 13.8753 1.9484
H 10.2028 14.2850 0.9588
C 20.3270 12.7632 4.6233
H 19.9281 12.3556 5.6106
C 21.4043 13.8637 4.6223
H 21.8039 14.2704 5.6105
C 10.0363 14.4144 3.2793
C 21.9417 14.4150 3.2889
C 21.9378 2.4526 3.2849
C 10.0031 2.4851 3.3099
N 8.9685 15.4829 3.2669
N 23.0047 15.4846 3.2870
N 23.0032 1.3811 3.2786
N 8.9414 1.4107 3.3261
C 7.5129 15.0948 3.3643
C 22.6083 16.9425 3.2934
C 24.4615 1.7669 3.3311
C 9.3364 -0.0408 3.2001
H 21.5367 17.2429 3.0462
H 7.1013 14.2570 2.7098
H 24.8071 2.5954 4.0337
H 10.4162 -0.3558 3.3856
O 8.915665818696349 -2.035142888944312 3.5273999999999996
C 8.51307019782724 -0.799470130461299 3.1872999999999996
O 7.379587307385882 -0.5510161365777138 2.9009
H 8.073319986441401 -2.599970994550542 3.7201999999999997
X 7.896849628310807 -1.735096517671907 3.001158779397478
O 26.449545853254694 1.3173507865018332 3.6584
C 25.2081767242124 0.9326780873655729 3.3183
O 24.943346710985086 -0.19709087755337196 3.0319000000000003
H 27.002125677465887 0.4669198205353253 3.8512
X 26.136806377079687 0.48490647986656854 2.8986794233836295
O 5.523527632522792 15.538442190867972 3.6915999999999998
C 6.763748702495628 15.926800398706344 3.3514999999999997
O 7.025221824877444 17.05735099742889 3.0651
H 4.968424233486932 16.387228092246424 3.8844
X 5.880327877295747 16.37900850937022 3.851806748463832
O 23.02814734094544 18.937029774232776 3.6207
C 23.431292372703474 17.701536154917477 3.2805999999999997
O 24.564885627926003 17.453586196833196 2.9942
H 23.870241935087602 19.502232379071565 3.8135
X 24.038254162028597 18.65197120218072 3.4578352171228244
0 6 A
0 4 A
0 1 S
2 8 A
2 10 A
2 3 S
4 27 A
4 5 A
5 12 S
5 7 A
6 30 A
6 7 A
7 13 S
8 9 A
8 33 A
9 11 A
9 14 S
10 11 A
10 36 A
11 15 S
16 24 A
16 18 A
17 22 A
17 20 A
18 19 S
18 27 A
19 26 S
19 25 A
20 21 A
20 30 A
21 29 S
21 23 A
22 23 A
22 33 A
23 32 S
24 25 A
24 36 A
25 35 S
27 28 S
28 38 A
28 62 A
30 31 S
31 66 A
31 42 A
33 34 S
34 54 A
34 46 A
36 37 S
37 50 A
37 58 A
38 40 A
38 39 S
40 41 S
40 70 A
42 44 A
42 43 S
44 71 A
44 45 S
46 47 S
46 48 A
48 49 S
48 72 A
50 51 S
50 52 A
52 73 A
52 53 S
54 55 S
54 56 A
56 72 A
56 57 S
58 59 S
58 60 A
60 61 S
60 73 A
62 64 A
62 63 S
64 70 A
64 65 S
66 68 A
66 67 S
68 69 S
68 71 A
70 74 S
71 75 S
72 76 S
73 77 S
74 78 D
75 79 D
76 80 D
77 81 D
78 83 S
79 82 S
80 84 S
81 85 S
86 87 S
87 88 A
86 89 S
81 87 S
90 89 S
91 92 S
92 93 A
91 94 S
80 92 S
95 94 S
96 97 S
97 98 A
96 99 S
78 97 S
100 99 S
101 102 S
102 103 A
101 104 S
79 102 S
105 104 S
