34
mol to xyz file
C -4.0537 1.3881 0.0000
C -3.2837 0.0544 0.0000
C -1.7437 0.0544 0.0000
C -0.9737 1.3881 0.0000
C -1.7437 2.7218 0.0000
C -3.2837 2.7218 0.0000
C 0.5756 1.3697 -0.0001
N 1.3363 0.0544 -0.0000
C 0.5663 -1.2793 -0.0000
C -0.9737 -1.2793 -0.0000
C -1.7437 -2.6129 -0.0000
C -3.2931 -2.5945 0.0001
N -4.0537 -1.2793 -0.0000
C 1.3363 -2.6129 -0.0000
C 0.5663 -3.9466 -0.0000
C -0.9737 -3.9466 -0.0000
O -1.4496 -5.4112 -0.0000
B -0.2037 -6.3164 -0.0000
O 1.0422 -5.4112 -0.0000
O -3.7596 4.1864 -0.0000
B -2.5137 5.0916 -0.0000
O -1.2678 4.1864 -0.0000
H -3.8747 -3.5750 0.0004
H 1.1573 2.3501 -0.0001
H -5.1937 1.3881 -0.0000
H 2.4763 -2.6129 -0.0000
N 0.28683485264145897 -7.218799278780752 0.016300000000000002
H 0.14260255331127408 -7.631177677620856 -0.9134
H -0.24117754839984784 -7.811188909299884 0.6687000000000001
X 0.034924407745829944 -8.52841579518584 -0.0
N -2.980290956588309 6.006609168932205 0.016300000000000002
H -2.8252446422840998 6.415044647827808 -0.9134
H -2.4368553642822466 6.584882743475395 0.6687000000000001
X -2.8703050079847046 7.3114748890439865 -0.0
0 24 S
0 1 A
0 5 A
1 2 A
1 12 A
2 3 A
2 9 A
3 6 A
3 4 A
4 5 A
4 21 S
5 19 S
6 7 A
6 23 S
7 8 A
8 9 A
8 13 A
9 10 A
10 15 A
10 11 A
11 22 S
11 12 A
13 25 S
13 14 A
14 15 A
14 18 S
15 16 S
16 17 S
17 18 S
19 20 S
20 21 S
26 27 S
26 28 S
17 27 S
29 28 S
30 31 S
30 32 S
20 31 S
33 32 S
