36
mol to xyz file
C -4.0882 1.0599 0.0000
C -3.3182 -0.2738 0.0000
C -1.7782 -0.2738 0.0000
C -1.0082 1.0599 0.0000
C -1.7782 2.3936 0.0000
C -3.3182 2.3936 0.0000
C 0.5411 1.0415 -0.0001
O 1.3018 -0.2738 -0.0000
C 0.5318 -1.6075 -0.0000
C -1.0082 -1.6075 -0.0000
C -1.7782 -2.9411 -0.0000
C -3.3276 -2.9227 0.0001
O -4.0882 -1.6075 -0.0000
C 1.3018 -2.9411 -0.0000
C 0.5318 -4.2748 -0.0000
C -1.0082 -4.2748 -0.0000
O -1.4841 -5.7394 -0.0000
B -0.2382 -6.6446 -0.0000
O 1.0077 -5.7394 -0.0000
O -3.7941 3.8582 -0.0000
B -2.5482 4.7634 -0.0000
O -1.3023 3.8582 -0.0000
H -5.2282 1.0599 0.0000
O 1.3024 2.3420 -0.0001
O -4.0889 -4.2232 0.0004
H 2.4418 -2.9411 -0.0000
O 1.0118486434895853 -8.254506580802081 0.32730000000000004
C -0.1913066677996314 -7.763194361417554 -0.012799999999999999
O -1.1134156536574715 -8.467628792858996 -0.29919999999999997
H 0.8985260824391688 -9.262343515607 0.5201
X 0.0004244077458300799 -8.856615795185839 -0.0
O -3.7554435728436673 6.405649605214645 0.32730000000000004
C -2.565636178460047 5.882841070213483 -0.012799999999999999
O -1.6253062264473426 6.562761971015764 -0.29919999999999997
H -3.615634446466742 7.410154805888947 0.5201
X -2.9048050079847045 6.983274889043986 -0.0
0 22 S
0 1 A
0 5 A
1 2 A
1 12 S
2 3 A
2 9 S
3 6 S
3 4 A
4 5 A
4 21 S
5 19 S
6 7 S
6 23 D
7 8 S
8 9 A
8 13 A
9 10 A
10 15 A
10 11 S
11 24 D
11 12 S
13 25 S
13 14 A
14 15 A
14 18 S
15 16 S
16 17 S
17 18 S
19 20 S
20 21 S
26 27 S
27 28 A
26 29 S
17 27 S
30 29 S
31 32 S
32 33 A
31 34 S
20 32 S
35 34 S
