30
mol to xyz file
C -2.9236 1.3881 0.0000
C -2.1536 0.0544 0.0000
C -0.6136 0.0544 0.0000
C 0.1564 1.3881 0.0000
C -0.6136 2.7218 0.0000
C -2.1536 2.7218 0.0000
C 0.1564 4.0555 -0.0000
C 1.6964 4.0555 -0.0000
C 2.4664 2.7218 -0.0000
C 1.6964 1.3881 -0.0000
O 3.9727 3.0420 -0.0000
B 4.1337 4.5735 -0.0000
O 2.7269 5.1999 -0.0000
O -4.4300 1.0679 0.0000
B -4.5909 -0.4637 0.0000
O -3.1841 -1.0900 0.0000
H -0.0436 -0.9329 0.0000
H -2.7236 3.7090 -0.0000
H -0.4136 5.0427 -0.0000
H 2.2664 0.4008 -0.0000
O 5.332885760008952 6.221642688905227 0.32730000000000004
C 5.195218967490808 4.92935082781588 -0.012799999999999999
O 6.128125529934122 4.239279675143781 -0.29919999999999997
H 6.332524854195068 6.392812111918688 0.5201
X 6.117941339539703 5.628594398757013 -0.0
O -5.790064765294786 -2.1118579644183084 0.32730000000000004
C -5.652414434452626 -0.8195643497861521 -0.012799999999999999
O -6.58532978718747 -0.12950508085947354 -0.29919999999999997
H -6.78970167898394 -2.283040121169598 0.5201
X -6.575128444933844 -1.5187167326485174 0.0
0 1 A
0 13 S
0 5 A
1 2 A
1 15 S
2 3 A
2 16 S
3 9 A
3 4 A
4 5 A
4 6 A
5 17 S
6 7 A
6 18 S
7 12 S
7 8 A
8 10 S
8 9 A
9 19 S
10 11 S
11 12 S
13 14 S
14 15 S
20 21 S
21 22 A
20 23 S
11 21 S
24 23 S
25 26 S
26 27 A
25 28 S
14 26 S
29 28 S
