28
mol to xyz file
C -2.9236 1.3881 0.0000
C -2.1536 0.0544 0.0000
C -0.6136 0.0544 0.0000
C 0.1564 1.3881 0.0000
C -0.6136 2.7218 0.0000
C -2.1536 2.7218 0.0000
C 0.1564 4.0555 -0.0000
C 1.6964 4.0555 -0.0000
C 2.4664 2.7218 -0.0000
C 1.6964 1.3881 -0.0000
O 3.9727 3.0420 -0.0000
B 4.1337 4.5735 -0.0000
O 2.7269 5.1999 -0.0000
O -4.4300 1.0679 0.0000
B -4.5909 -0.4637 0.0000
O -3.1841 -1.0900 0.0000
H -0.0436 -0.9329 0.0000
H -2.7236 3.7090 -0.0000
H -0.4136 5.0427 -0.0000
H 2.2664 0.4008 -0.0000
N 4.840898974294753 5.318361403723169 0.016300000000000002
H 5.2776570618905145 5.308297959000174 -0.9134
H 5.567224110679345 4.998714150871055 0.6687000000000001
X 6.117941339539703 5.628594398757013 -0.0
N -5.298086217592627 -1.2085735152004218 0.016300000000000002
H -5.73484447747227 -1.1985175504577272 -0.9134
H -6.024416828193333 -0.8889387015389453 0.6687000000000001
X -6.575128444933844 -1.5187167326485174 0.0
0 1 A
0 13 S
0 5 A
1 2 A
1 15 S
2 3 A
2 16 S
3 9 A
3 4 A
4 5 A
4 6 A
5 17 S
6 7 A
6 18 S
7 12 S
7 8 A
8 10 S
8 9 A
9 19 S
10 11 S
11 12 S
13 14 S
14 15 S
20 21 S
20 22 S
11 21 S
23 22 S
24 25 S
24 26 S
14 25 S
27 26 S
