32
mol to xyz file
C 12.1733 3.8130 27.6218
C 13.3326 3.8130 28.2884
C 16.8107 3.8130 27.6218
C 15.6514 3.8130 28.2884
H 12.1290 3.8128 26.5398
H 16.8552 3.8128 26.5398
O 19.1874 3.8130 27.7957
C 11.0429 3.8130 28.3174
O 9.7966 3.8130 27.7957
C 17.9411 3.8130 28.3174
N 14.4920 3.8130 27.6218
O 9.7966 3.8130 30.1723
C 17.9411 3.8130 29.6506
O 19.1874 3.8130 30.1723
C 11.0429 3.8130 29.6506
B 9.0430 3.8130 28.9840
N 14.4920 3.8130 30.3462
C 16.8107 3.8130 30.3462
C 15.6514 3.8130 29.6796
C 12.1733 3.8130 30.3462
C 13.3326 3.8130 29.6796
B 19.9410 3.8130 28.9840
H 16.8549 3.8136 31.4286
H 12.1291 3.8134 31.4280
N 8.060275904356674 3.5143325397000744 29.000300000000003
H 7.6854124922452405 3.7386901164835953 28.070600000000002
H 7.586413647226044 4.150867795021462 29.652700000000003
X 6.793724588167162 3.813 28.96138859108996
N 20.924604558337823 4.108754920190788 29.000300000000003
H 21.29880168692474 3.8832878295604636 28.070600000000002
H 21.396579059152895 3.4708186846778957 29.652700000000003
X 22.190275411832836 3.813 28.96138859108996
0 7 A
0 4 S
0 1 A
1 10 A
2 5 S
2 3 A
2 9 A
3 10 A
6 9 S
7 8 S
11 15 S
11 14 S
12 13 S
12 17 A
13 21 S
14 19 A
16 18 A
16 20 A
17 22 S
17 18 A
19 23 S
19 20 A
1 20 A
3 18 A
6 21 S
7 14 A
8 15 S
9 12 A
24 25 S
24 26 S
15 25 S
27 26 S
28 29 S
28 30 S
21 29 S
31 30 S
