104
mol to xyz file
C -6.8177 25.8153 6.4850
C -7.6858 25.8821 5.2255
C -9.1796 25.5475 5.3248
C -9.8287 25.3223 6.7068
C -8.9502 25.2475 7.9650
C -7.4404 25.4736 7.8405
C -5.3287 26.1527 6.4121
C -4.7388 26.7361 5.1241
C -5.5786 26.7256 3.8205
C -7.0591 26.2818 3.8767
C -7.9015 26.2098 2.5845
C -9.4024 25.8068 2.6775
C -10.0235 25.4679 4.0465
C -9.5813 25.0228 9.3517
C -8.6772 24.9194 10.6038
C -7.1426 25.0932 10.4532
C -6.5472 25.4296 9.0811
C -11.3553 25.2254 6.8395
C -12.0091 25.0753 8.2271
C -11.1181 25.0097 9.5006
C -3.3477 27.3857 5.2478
C -6.1512 25.0067 11.6297
C -13.5516 25.0445 8.2879
C -10.3386 25.7300 1.4525
C -2.4101 26.8644 6.3516
C -1.1783 27.6816 6.7716
C -0.9066 29.0455 6.1174
C -1.7714 29.5116 4.9286
C -2.9849 28.6700 4.4783
C -10.2044 26.6969 0.2607
C -11.2330 26.6533 -0.8879
C -6.2441 23.8948 12.6916
C -5.0884 23.6932 13.6934
C -3.8548 24.6160 13.6463
C -3.8084 25.7814 12.6458
C -4.9397 25.9563 11.6210
C -14.3505 25.7174 7.1560
C -15.8365 24.4375 9.5234
C -14.3028 24.3288 9.4252
C -4.9473 27.0632 2.4554
C -11.7184 25.0591 10.9255
C -9.3354 24.7732 11.9911
H -11.2885 24.7399 13.1386
C -2.6429 24.3502 14.5587
C 0.1936 29.9576 6.6946
H -4.6580 25.9703 7.3157
H -11.1185 25.1563 4.1049
H -5.4321 25.6476 8.9886
H -12.0119 25.2644 5.9084
H -0.4690 27.2758 7.5664
H -1.5149 30.4783 4.3815
H -3.6109 28.9938 3.5824
H -9.3447 27.4449 0.2275
H -11.1285 27.3629 -1.7740
H -7.1648 23.2241 12.7356
H -5.1459 22.8606 14.4700
H -2.9356 26.5145 12.6647
H -4.8783 26.7949 10.8513
H -13.8063 26.1426 6.2491
H -16.3891 23.9402 10.3876
H -13.7243 23.7183 10.1948
H -1.7658 25.0783 14.5680
N -10.8357 24.8459 12.1307
N 0.3644 31.3660 6.1784
N -13.3934 26.6350 -3.0853
N -2.6097 23.1274 15.4432
O -3.4914 27.4456 2.3551
O -8.4978 24.6550 13.2375
H 0.8833 29.5696 7.5152
C -12.4031 25.6508 -0.8393
C -12.5311 24.6801 0.3462
C -11.5146 24.7361 1.4990
C -15.8843 25.8179 7.2457
C -16.6248 25.2176 8.4549
C -7.1965 26.4532 1.2296
C -13.4650 25.6370 -1.9550
C -18.1486 25.4015 8.5969
H -5.2868 27.1805 0.2174
H -2.6281 25.8682 6.8613
H -13.3795 23.9190 0.3707
H -11.6291 24.0396 2.3942
H -16.4717 26.3363 6.4175
N -5.7601 26.9268 1.1888
N -18.8682 24.8510 9.8062
O -7.8894 26.1441 -0.0727
O -13.1593 25.4360 11.1570
H -18.7339 25.9532 7.7891
H -14.3090 24.8712 -1.9291
N -0.12601025773600255 32.268466996131885 6.1947
H 0.018278975459617153 32.68082547753347 5.265
H 0.40208392685811417 32.86078372069559 6.8471
X -0.04232155335158616 32.31113946034106 7.9343146440241155
N -14.320582493245693 26.193093308244038 -3.069
H -14.724717024630682 26.359027573970675 -3.9987
H -14.884087645472142 26.75182805158317 -2.4166
X -14.448847946692522 27.24954859594055 -2.6402497190095167
N -2.850819234996647 22.128996066456754 15.459499999999998
H -3.2343248017928214 21.9197536705702 14.5298
H -3.6397533150797567 22.043523338154564 16.1119
X -2.852506020095091 22.942509920431263 17.475571999845723
N -19.599625594865437 24.129913667321485 9.8225
H -20.035812644290825 24.154403622682267 8.892800000000001
H -20.314991839248425 24.473386674117336 10.4749
X -19.91236274876564 24.989591389775654 11.340861238829795
0 6 A
0 1 A
0 5 S
1 2 A
1 9 A
2 3 S
2 12 A
3 4 A
3 17 A
4 13 A
4 5 A
5 16 A
6 7 A
6 45 S
7 8 A
7 20 S
8 9 A
8 39 S
9 10 A
10 11 A
11 23 S
11 12 A
12 46 S
13 19 A
13 14 A
14 15 A
14 41 S
15 16 A
15 21 S
16 47 S
17 48 S
17 18 A
18 19 A
18 22 S
19 40 S
20 24 A
20 28 A
21 31 A
21 35 A
22 36 A
22 38 A
23 29 A
24 25 A
25 49 S
25 26 A
26 27 A
26 44 S
27 28 A
27 50 S
28 51 S
29 52 S
29 30 A
30 53 S
31 54 S
31 32 A
32 33 A
32 55 S
33 34 A
33 43 S
34 35 A
34 56 S
35 57 S
36 58 S
37 38 A
37 59 S
38 60 S
39 66 D
40 62 S
41 62 S
41 67 D
42 62 S
43 65 D
43 61 S
44 68 S
44 63 D
69 75 S
69 70 A
70 79 S
70 71 A
71 80 S
72 73 A
72 81 S
73 76 S
74 84 D
74 82 S
75 87 S
76 86 S
76 83 D
77 82 S
78 24 S
40 85 D
75 64 D
39 82 S
74 10 S
23 71 A
30 69 A
72 36 A
37 73 A
88 89 S
88 90 S
63 89 S
91 90 S
92 93 S
92 94 S
64 93 S
95 94 S
96 97 S
96 98 S
65 97 S
99 98 S
100 101 S
100 102 S
83 101 S
103 102 S
