18
mol to xyz file
C -1.9593 0.5408 0.0000
C -0.8704 -0.5482 0.0000
C 0.2186 0.5408 0.0000
C -0.8704 1.6297 0.0000
O -3.3315 -0.1584 0.0000
B -3.0906 -1.6794 0.0000
O -1.5695 -1.9203 0.0000
O -0.1712 3.0019 -0.0000
B 1.3498 2.7610 -0.0000
O 1.5907 1.2399 -0.0000
N -3.5590412394609108 -2.5934632938546027 0.016300000000000002
H -3.980910544397043 -2.706976242687345 -0.9134
H -4.3460290899009575 -2.491616873889268 0.6687000000000001
X -4.7072720156238494 -3.2381882292838284 0.0
N 1.863135243288998 3.6506267914116712 0.016300000000000002
H 2.2901293578035133 3.7430114555608975 -0.9134
H 2.644081799987184 3.509754347047105 0.6687000000000001
X 2.9085882292838283 4.377672015623849 -0.0
0 3 A
0 4 S
0 1 A
1 2 A
1 6 S
2 9 S
2 3 A
3 7 S
4 5 S
5 6 S
7 8 S
8 9 S
10 11 S
10 12 S
5 11 S
13 12 S
14 15 S
14 16 S
8 15 S
17 16 S
