20
mol to xyz file
C -1.9593 0.5408 0.0000
C -0.8704 -0.5482 0.0000
C 0.2186 0.5408 0.0000
C -0.8704 1.6297 0.0000
O -3.3315 -0.1584 0.0000
B -3.0906 -1.6794 0.0000
O -1.5695 -1.9203 0.0000
O -0.1712 3.0019 -0.0000
B 1.3498 2.7610 -0.0000
O 1.5907 1.2399 -0.0000
O -3.696738031519947 -3.625426078125657 0.32730000000000004
C -3.9815290682650506 -2.357410121842121 -0.012799999999999999
O -5.086675075327907 -2.0036232466290578 -0.29919999999999997
H -4.588397943418263 -4.108665037144366 0.5201
X -4.7072720156238494 -3.2381882292838284 0.0
O 2.0451539331199755 4.6769602599465845 0.32730000000000004
C 2.2710874424663476 3.397146035398961 -0.012799999999999999
O 3.3587175672332745 2.9927037506419403 -0.29919999999999997
H 2.9581774064131685 5.11850915555797 0.5201
X 2.9085882292838283 4.377672015623849 -0.0
0 3 A
0 4 S
0 1 A
1 2 A
1 6 S
2 9 S
2 3 A
3 7 S
4 5 S
5 6 S
7 8 S
8 9 S
10 11 S
11 12 A
10 13 S
5 11 S
14 13 S
15 16 S
16 17 A
15 18 S
8 16 S
19 18 S
