50
mol to xyz file
N -1.7468 1.9910 0.3891
C -0.9244 0.7396 0.3816
C 0.4642 1.0943 -0.1021
N 0.5348 2.5751 -0.4112
C -0.8543 3.1142 -0.0920
C 1.5712 0.0393 -0.1947
C 1.2234 -1.4101 0.2246
C -0.2092 -1.7717 0.7108
C -1.3059 -0.6841 0.7953
C -1.2737 4.5911 -0.1879
C 2.3051 -2.5038 0.1664
N 1.9707 -3.9153 0.5861
H 2.6179 0.3139 -0.5536
H -0.4506 -2.8443 1.0123
H -2.3583 -0.9328 1.1563
C -0.2729 5.6446 -0.6953
C -0.6772 7.1289 -0.7374
C -2.0761 7.5594 -0.2595
C -3.0885 6.5018 0.2169
C -2.6876 5.0160 0.2492
C -2.4506 9.0514 -0.2402
N -1.5384 10.1747 -0.6841
C -2.2699 11.4584 -0.4421
C -3.6252 11.1227 0.1424
N -3.7686 9.6203 0.2732
C -4.6167 12.2210 0.5401
C -4.1876 13.6932 0.3236
C -2.7978 14.0316 -0.2886
C -1.8169 12.9010 -0.6791
C -5.1413 14.8347 0.7209
N -4.7187 16.2705 0.5207
H 0.7693 5.3270 -1.0308
H 0.0630 7.9112 -1.1109
H -4.1303 6.8195 0.5537
H -3.4328 4.2315 0.6082
H -5.6332 11.9631 0.9872
H -2.4988 15.1203 -0.4463
H -0.7926 13.1337 -1.1220
H -2.8058 2.0819 0.7090
H -0.5154 10.0669 -1.1015
H 3.3576 -2.2475 -0.1887
H -6.1628 14.5964 1.1678
N 2.5514829134430563 -4.7624364160822 0.6024
H 2.4504475094136584 -5.187466705747085 -0.32730000000000004
H 2.087226511321213 -5.406011247076142 1.2548
X 2.96436137981989 -5.874209973203442 0.5562491437308862
N -5.306097482800281 17.113063408414995 0.5370000000000001
H -5.208392806920373 17.53887169427989 -0.39269999999999994
H -4.846893961879019 17.760253254112154 1.1894
X -5.655002550965969 18.251367960126775 0.7011205535548289
0 38 S
0 1 A
0 4 A
1 8 A
1 2 A
2 5 A
2 3 A
3 4 A
4 9 S
5 12 S
5 6 A
6 7 A
6 10 S
7 8 A
7 13 S
8 14 S
9 15 A
9 19 A
10 40 S
10 11 D
15 31 S
15 16 A
16 17 A
16 32 S
17 20 S
17 18 A
18 33 S
18 19 A
19 34 S
20 21 A
20 24 A
21 39 S
21 22 A
22 28 A
22 23 A
23 25 A
23 24 A
25 35 S
25 26 A
26 29 S
26 27 A
27 28 A
27 36 S
28 37 S
29 41 S
29 30 D
42 43 S
42 44 S
11 43 S
45 44 S
46 47 S
46 48 S
30 47 S
49 48 S
