55
mol to xyz file
C 1.8364 -8.8530 0.0374
C 1.2788 -8.8163 1.4722
C 1.2910 -7.4843 2.2280
C 1.7954 -6.1790 1.6028
C 2.3338 -6.2147 0.1607
C 2.3714 -7.5544 -0.6114
C 0.9088 -4.8815 3.5484
C 0.6924 -6.1798 4.3330
N 0.8181 -7.4611 3.6212
C 0.3463 -6.2002 5.8250
C 0.1755 -4.8575 6.5588
C 0.3809 -3.5316 5.7898
C 0.7598 -3.5398 4.2900
C 0.7328 -10.0436 3.5775
C 0.4717 -8.7187 4.3034
C -0.1397 -8.6488 5.7073
C -0.5015 -9.9655 6.4188
C -0.2856 -11.3140 5.6933
C 0.3293 -11.3556 4.2748
N 2.9480 -7.5949 -2.0057
N 0.2063 -2.2181 6.5121
N -0.6890 -12.6020 6.3693
C 3.5233 -6.3396 -2.6157
C -0.1783 -2.2090 7.9719
C -0.5515 -13.9120 5.6313
H -0.3377 -3.1930 8.5254
H 1.8526 -9.8324 -0.5453
H 0.8354 -9.7603 1.9772
H 1.8123 -5.2059 2.2330
H 2.7194 -5.2609 -0.3302
H 1.1346 -4.9268 2.4122
H 0.2470 -7.2137 6.3782
H -0.0931 -4.8397 7.6665
H 0.9135 -2.5572 3.7330
H 1.2499 -10.0417 2.5401
H -0.3606 -7.6182 6.1902
H -0.9442 -9.9456 7.4689
H 0.4898 -12.3551 3.7507
H 3.5201 -5.3658 -2.0230
H -0.1439 -13.9252 4.5666
O -0.3926170084351046 -15.94403764851722 5.958600000000001
C -1.1274048940963088 -14.872096809158286 5.618500000000001
O -2.284943261779129 -14.953446531605216 5.3321000000000005
H -1.041441759498496 -16.72352705345325 6.151400000000001
X -1.4507289906839604 -15.623488601934191 6.748356439392834
O 2.011285508333483 -4.972766803523397 -2.2884
C 3.2817583375148307 -5.246389153326816 -2.6285000000000003
O 4.066660449441254 -4.39173043506938 -2.9149000000000003
H 1.946841583807888 -3.9606283393833674 -2.0956
X 3.7563268776372056 -5.894790478501716 -4.733434123948287
O -2.0134508601213343 -1.322071518894602 8.2992
C -0.7172780674846847 -1.2276973082832827 7.9591
O -0.20413549330904232 -0.18692953948546132 7.6727
H -2.359686187460649 -0.3688147916158284 8.492
X -0.8685144253260346 -0.7323446802803826 9.431561964265835
0 5 A
0 26 S
0 1 A
1 2 A
1 27 S
2 8 S
2 3 A
3 28 S
3 4 A
4 29 S
4 5 A
5 19 S
6 30 S
6 12 A
6 7 A
7 9 A
7 8 S
8 14 S
9 10 A
9 31 S
10 11 A
10 32 S
11 20 S
11 12 A
12 33 S
13 34 S
13 14 A
13 18 A
14 15 A
15 35 S
15 16 A
16 36 S
16 17 A
17 21 S
17 18 A
18 37 S
19 22 D
20 23 D
21 24 D
23 25 S
27 34 S
28 30 S
31 35 S
22 38 S
24 39 S
40 41 S
41 42 A
40 43 S
24 41 S
44 43 S
45 46 S
46 47 A
45 48 S
22 46 S
49 48 S
50 51 S
51 52 A
50 53 S
23 51 S
54 53 S
