42
mol to xyz file
N 16.3356 22.7796 1.7774
C 14.6186 20.7728 1.7529
C 14.1970 19.2781 1.7370
C 11.9234 20.4837 1.7088
S 13.1381 21.8029 1.7382
C 16.0672 21.2937 1.7742
C 10.3854 20.5563 1.7037
H 9.8759 22.8909 1.7795
H 16.9372 20.5573 1.7851
C 12.6495 19.1278 1.7102
H 14.9276 18.4031 1.7444
N 5.3849 21.9268 1.8960
C 7.9777 21.4403 1.7743
C 9.4827 21.8212 1.7519
C 9.5742 19.2499 1.6867
S 7.8249 19.6429 1.7253
C 6.8055 22.4366 1.8535
H 7.0104 23.5577 1.8868
N 11.5972 12.8642 1.8291
C 10.7196 15.3542 1.7389
C 9.6358 16.4666 1.7058
C 10.2800 17.8814 1.6864
C 11.8174 17.8320 1.6994
S 12.3525 16.1210 1.7377
C 10.4448 13.8395 1.7821
H 8.5127 16.2714 1.7041
H 9.3717 13.4547 1.7812
O 17.45344856372343 24.48395776719017 2.1047000000000002
C 17.378613124342657 23.186510251098408 1.7646000000000002
O 18.343886896279734 22.54249208737135 1.4782000000000002
H 18.443610700131547 24.703403053363548 2.2975000000000003
X 18.27789032795677 23.881907493841606 1.7666594386227796
O 3.346661446140989 21.92889941961677 2.2233
C 4.473285956793597 22.576732432048807 1.8832
O 4.48361032054715 23.737079904796985 1.5968
H 2.6208497146160323 22.637259935442394 2.4161
X 3.4602657502384413 23.057863590661295 1.9471060392045096
O 12.619831177079352 11.101064643407856 2.1564
C 11.493515596833772 11.749434610090507 1.8163
O 10.485192988446244 11.175153870891833 1.5299
H 12.372248293862826 10.117560700386685 2.3492
X 11.57988416768003 10.631015035934764 1.845086565118782
0 5 D
1 5 S
1 2 A
1 4 A
3 6 A
3 4 A
5 8 S
2 10 S
2 9 A
3 9 A
11 16 D
12 15 A
12 13 A
12 16 S
14 15 A
16 17 S
13 6 A
13 7 S
14 6 A
18 24 D
19 20 A
19 23 A
19 24 S
20 25 S
20 21 A
21 22 A
22 23 A
24 26 S
22 9 A
14 21 A
27 28 S
28 29 A
27 30 S
0 28 S
31 30 S
32 33 S
33 34 A
32 35 S
11 33 S
36 35 S
37 38 S
38 39 A
37 40 S
18 38 S
41 40 S
