49
mol to xyz file
N 21.0754 29.1872 1.5475
C 21.2495 30.6860 1.5980
C 19.6879 28.5948 1.4934
C 18.4590 29.5206 1.4665
C 17.0412 28.9216 1.4218
C 16.8565 27.3915 1.4143
C 19.5019 27.0674 1.4667
H 18.5989 30.6520 1.4807
C 14.4636 29.2375 1.4271
O 15.8468 29.8508 1.3908
H 13.3702 31.2924 1.5052
N 15.4732 26.8041 1.4022
H 20.3340 31.3656 1.5946
N 10.6105 30.4639 1.5813
C 9.2243 29.8662 1.6065
H 9.0918 28.7344 1.5708
C 11.8167 29.5587 1.5140
C 11.6286 28.0321 1.4752
C 12.8560 27.1035 1.4215
C 14.2732 27.7083 1.4127
C 13.2325 30.1610 1.4834
H 10.5785 27.5882 1.4885
C 18.0862 26.4624 1.4286
O 17.9252 24.9575 1.4120
H 20.4133 26.3827 1.4802
N 14.7338 20.7612 1.5306
C 15.9434 19.8608 1.6051
C 14.9154 22.2591 1.4819
C 16.3318 22.8604 1.4719
C 16.5230 24.3879 1.4301
C 15.2905 25.3128 1.4109
C 13.8711 24.7127 1.4111
C 13.6865 23.1842 1.4446
O 12.6488 25.6046 1.3829
H 17.2411 22.1733 1.4954
H 12.6378 22.7374 1.4443
H 16.9894 20.3137 1.6298
N 21.90430473874026 31.477315142104143 1.6143
H 22.340733530357145 31.49703340388931 0.6846
H 22.65072102285277 31.2078985486811 2.2667
X 23.182543258876752 31.819849245820944 1.6173444612903354
N 8.213162687178032 30.04661683574204 1.6228
H 7.98115374260416 30.416793482274098 0.6930999999999999
H 8.080226439971167 30.82895341559662 2.2752
X 7.276354337675661 30.973481773486736 1.6383745916045322
N 16.298246089268467 18.896936341108933 1.6214
H 16.095881088011886 18.509757692076704 0.6916999999999999
H 15.690098914641695 18.38715248103344 2.2738
X 15.957730112980833 17.61965102006279 1.620874023489547
0 2 S
0 1 D
2 3 A
2 6 A
3 4 A
3 7 S
4 9 S
4 5 A
5 11 S
8 9 S
1 12 S
13 14 D
13 16 S
16 20 A
16 17 A
17 21 S
17 18 A
18 19 A
14 15 S
10 20 S
8 20 A
19 8 A
22 23 S
24 6 S
6 22 A
5 22 A
11 19 S
25 26 D
25 27 S
27 28 A
27 32 A
28 34 S
28 29 A
29 30 A
30 31 A
31 32 A
31 33 S
32 35 S
26 36 S
30 11 S
33 18 S
23 29 S
37 38 S
37 39 S
38 1 S
40 39 S
41 42 S
41 43 S
14 42 S
44 43 S
45 46 S
45 47 S
46 26 S
48 47 S
