65
mol to xyz file
N 0.1302 11.8122 -0.3939
C -0.2827 15.9907 1.3765
C -0.8758 15.7774 -0.0461
C -0.8016 14.3917 -0.7342
C -0.1058 13.2551 0.0212
C 0.4324 13.4595 1.4282
C 0.3664 14.8121 2.1412
C 0.8158 11.1200 0.7727
C 1.3715 9.6961 0.8765
C 2.1104 9.2999 2.1790
C 2.3108 10.3346 3.3241
C 1.7513 11.7709 3.1904
C 1.0125 12.1243 1.8975
C -0.3349 17.3872 2.0235
C 3.0936 9.9341 4.5885
H -1.3692 16.6512 -0.5883
H -1.2512 14.2245 -1.7667
H 0.7871 14.9482 3.1918
H 1.2613 8.9563 0.0175
H 2.5254 8.2449 2.2931
H 1.8976 12.5421 4.0177
N -0.9266 18.5499 1.2625
N 3.3387 10.9507 5.6780
H 0.0818 17.5455 3.0721
H 3.4979 8.8741 4.6966
N -0.2057 11.2039 -1.7061
C -0.9544 6.9437 -3.1405
C -0.6638 7.1283 -1.6228
C -0.3961 8.5338 -1.0302
C -0.4032 9.7252 -1.9920
C -0.7250 9.5441 -3.4676
C -1.0003 8.1701 -4.0837
C -0.4092 11.9411 -3.0194
C -0.2581 13.4311 -3.3400
C -0.5138 13.8876 -4.7984
C -0.8834 12.8531 -5.9018
C -0.9825 11.3469 -5.5616
C -0.7313 10.9320 -4.1101
C -1.1978 5.5319 -3.7068
C -1.1514 13.3305 -7.3426
H -1.2298 8.0548 -5.1940
H 0.0421 14.1797 -2.5356
H -0.4284 14.9914 -5.0665
H -1.2359 10.5754 -6.3619
H -0.2096 8.6763 0.0846
N -1.1454 4.3308 -2.7922
N -1.5117 12.3297 -8.4155
H -1.4142 5.3933 -4.8169
H -1.0795 14.4383 -7.5984
N -1.1796647505939204 19.545343183716096 1.2788
H -0.9382712333222899 19.909469631285113 0.34909999999999985
H -0.5219694002894653 19.98936952999287 1.9312
X -0.9137831507892489 20.706179387897404 1.8473368308460847
N 3.968716203634487 11.761889548230243 5.6943
H 4.404326306794292 11.795097047761274 4.7646
H 4.7231083824966635 11.5156883896798 6.3467
X 4.642038605405716 10.634252588504989 7.472279836997835
N -0.9012849862413852 3.3331243212057178 -2.7758999999999996
H -1.145938790202942 2.971180380508902 -3.7055999999999996
H -1.5629413732113013 2.895022283340203 -2.1234999999999995
X -1.2757887869737317 2.2426366103851367 -3.604554994979022
N -1.7056419069082582 13.33833047581599 -8.3992
H -1.4432024589770014 13.687593179478343 -9.328899999999999
H -1.0229144270726334 13.742812562288677 -7.7467999999999995
X -1.720197120205949 12.701021529485887 -10.607877356684318
0 7 A
0 4 A
1 13 S
1 2 A
1 6 A
2 3 A
2 15 S
3 16 S
3 4 A
4 5 A
5 6 A
5 12 A
6 17 S
7 12 A
7 8 A
8 18 S
8 9 A
9 10 A
9 19 S
10 14 S
10 11 A
11 12 A
11 20 S
13 21 D
13 23 S
14 24 S
14 22 D
25 32 A
25 29 A
26 38 S
26 31 A
26 27 A
27 28 A
28 44 S
28 29 A
29 30 A
30 37 S
30 31 A
31 40 S
32 37 A
32 33 A
33 34 A
33 41 S
34 35 A
34 42 S
35 39 S
35 36 A
36 37 A
36 43 S
38 47 S
38 45 D
39 48 S
39 46 D
0 25 S
49 50 S
49 51 S
21 50 S
52 51 S
53 54 S
53 55 S
22 54 S
56 55 S
57 58 S
57 59 S
45 58 S
60 59 S
61 62 S
61 63 S
46 62 S
64 63 S
