69
mol to xyz file
N 0.1302 11.8122 -0.3939
C -0.2827 15.9907 1.3765
C -0.8758 15.7774 -0.0461
C -0.8016 14.3917 -0.7342
C -0.1058 13.2551 0.0212
C 0.4324 13.4595 1.4282
C 0.3664 14.8121 2.1412
C 0.8158 11.1200 0.7727
C 1.3715 9.6961 0.8765
C 2.1104 9.2999 2.1790
C 2.3108 10.3346 3.3241
C 1.7513 11.7709 3.1904
C 1.0125 12.1243 1.8975
C -0.3349 17.3872 2.0235
C 3.0936 9.9341 4.5885
H -1.3692 16.6512 -0.5883
H -1.2512 14.2245 -1.7667
H 0.7871 14.9482 3.1918
H 1.2613 8.9563 0.0175
H 2.5254 8.2449 2.2931
H 1.8976 12.5421 4.0177
N -0.9266 18.5499 1.2625
N 3.3387 10.9507 5.6780
H 0.0818 17.5455 3.0721
H 3.4979 8.8741 4.6966
N -0.2057 11.2039 -1.7061
C -0.9544 6.9437 -3.1405
C -0.6638 7.1283 -1.6228
C -0.3961 8.5338 -1.0302
C -0.4032 9.7252 -1.9920
C -0.7250 9.5441 -3.4676
C -1.0003 8.1701 -4.0837
C -0.4092 11.9411 -3.0194
C -0.2581 13.4311 -3.3400
C -0.5138 13.8876 -4.7984
C -0.8834 12.8531 -5.9018
C -0.9825 11.3469 -5.5616
C -0.7313 10.9320 -4.1101
C -1.1978 5.5319 -3.7068
C -1.1514 13.3305 -7.3426
H -1.2298 8.0548 -5.1940
H 0.0421 14.1797 -2.5356
H -0.4284 14.9914 -5.0665
H -1.2359 10.5754 -6.3619
H -0.2096 8.6763 0.0846
N -1.1454 4.3308 -2.7922
N -1.5117 12.3297 -8.4155
H -1.4142 5.3933 -4.8169
H -1.0795 14.4383 -7.5984
O -1.8208501397603 20.381494250247222 1.5898
C -0.7436564236425948 19.654428848817254 1.2497
O 0.30306440590913464 20.155316416024245 0.9633
H -1.503738407909553 21.34483086821761 1.7826
X -0.9137831507892489 20.706179387897404 1.8473368308460847
O 5.364004719429937 10.721436824904602 6.0053
C 4.172194166268492 10.20321100021713 5.6652000000000005
O 4.032604781069914 9.051244137178145 5.3788
H 6.006342025177224 9.936592843182554 6.1981
X 4.642038605405716 10.634252588504989 7.472279836997835
O -0.14141912159555026 2.5569783613344237 -2.4649
C -1.260834578887344 3.2171900198017704 -2.805
O -2.2751572891686647 2.653574646158045 -3.0914
H -0.39935993963886596 1.5761400339903373 -2.2721
X -1.2757887869737317 2.2426366103851367 -3.604554994979022
O -3.190079569382652 13.486187280984492 -8.0882
C -1.8946799297116845 13.381735504837186 -8.4283
O -1.2287813331938264 14.332046984908615 -8.7147
H -3.386850649260014 14.48110357501324 -7.8954
X -1.720197120205949 12.701021529485887 -10.607877356684318
0 7 A
0 4 A
1 13 S
1 2 A
1 6 A
2 3 A
2 15 S
3 16 S
3 4 A
4 5 A
5 6 A
5 12 A
6 17 S
7 12 A
7 8 A
8 18 S
8 9 A
9 10 A
9 19 S
10 14 S
10 11 A
11 12 A
11 20 S
13 21 D
13 23 S
14 24 S
14 22 D
25 32 A
25 29 A
26 38 S
26 31 A
26 27 A
27 28 A
28 44 S
28 29 A
29 30 A
30 37 S
30 31 A
31 40 S
32 37 A
32 33 A
33 34 A
33 41 S
34 35 A
34 42 S
35 39 S
35 36 A
36 37 A
36 43 S
38 47 S
38 45 D
39 48 S
39 46 D
0 25 S
49 50 S
50 51 A
49 52 S
21 50 S
53 52 S
54 55 S
55 56 A
54 57 S
22 55 S
58 57 S
59 60 S
60 61 A
59 62 S
45 60 S
63 62 S
64 65 S
65 66 A
64 67 S
46 65 S
68 67 S
