28
mol to xyz file
Si -0.0006 8.6902 0.1473
B 0.0000 10.7700 1.7994
O -0.7302 10.1059 0.7304
B 1.7646 7.6757 1.8103
O 1.5127 8.5122 0.7978
O -0.9399 7.4723 0.7551
B -1.7646 7.6758 1.7885
O 0.7302 10.1059 2.8684
O 0.9399 7.4723 2.8437
O -1.5127 8.5122 2.8010
Si 0.0006 8.6902 3.4515
H 0.0367 8.6638 -1.3920
H -0.0367 8.6638 4.9908
O -0.8830836117120876 12.607004122130794 2.1267
C 0.18966408313999658 11.873394700715325 1.7866000000000002
O 1.2394147056552969 12.367901000502032 1.5002000000000002
H -0.560113376718386 13.568392450179411 2.3195
X 0.01923379023715367 13.018975008470846 1.8108168605344035
O 3.79590357376384 7.507692258469282 2.1376
C 2.620283415459613 6.953717851669883 1.7975
O 2.515539509358424 5.798061516882302 1.5111
H 4.461645157249459 6.742600477035145 2.3304
X 3.6993399246299123 6.527632510057456 1.8109810221398646
O -2.981768563012672 6.040892816330643 2.1158
C -2.829953479213308 7.3315990494956464 1.7757
O -3.755244604461122 8.031848421889249 1.4893
H -3.983222769392455 5.880684319289324 2.3086
X -3.713797943511869 6.554246422624645 1.7978122844596904
0 2 S
0 4 S
0 5 S
0 11 S
1 2 S
1 7 S
3 4 S
3 8 S
5 6 S
6 9 S
7 10 S
8 10 S
9 10 S
10 12 S
13 14 S
14 15 A
13 16 S
1 14 S
17 16 S
18 19 S
19 20 A
18 21 S
3 19 S
22 21 S
23 24 S
24 25 A
23 26 S
6 24 S
27 26 S
