25
mol to xyz file
Si -0.0006 8.6902 0.1473
B 0.0000 10.7700 1.7994
O -0.7302 10.1059 0.7304
B 1.7646 7.6757 1.8103
O 1.5127 8.5122 0.7978
O -0.9399 7.4723 0.7551
B -1.7646 7.6758 1.7885
O 0.7302 10.1059 2.8684
O 0.9399 7.4723 2.8437
O -1.5127 8.5122 2.8010
Si 0.0006 8.6902 3.4515
H 0.0367 8.6638 -1.3920
H -0.0367 8.6638 4.9908
N -0.29107809495988207 11.754998701844082 1.8157
H -0.06383559367976704 12.1281203249269 0.886
H 0.3490934735107195 12.223936792557442 2.4681
X 0.01923379023715367 13.018975008470846 1.8108168605344035
N 2.759873103831758 7.421967170454632 1.8266
H 2.964246217827646 7.03584474132674 0.8968999999999999
H 2.8353565340960247 6.632014753054989 2.479
X 3.6993399246299123 6.527632510057456 1.8109810221398646
N -2.470468374652958 6.929677531724991 1.8048
H -2.907243728390559 6.938961408468772 0.8750999999999999
H -3.1973628796300875 7.2480278868905765 2.4572
X -3.713797943511869 6.554246422624645 1.7978122844596904
0 2 S
0 4 S
0 5 S
0 11 S
1 2 S
1 7 S
3 4 S
3 8 S
5 6 S
6 9 S
7 10 S
8 10 S
9 10 S
10 12 S
13 14 S
13 15 S
1 14 S
16 15 S
17 18 S
17 19 S
3 18 S
20 19 S
21 22 S
21 23 S
6 22 S
24 23 S
