42
mol to xyz file
C 4.3162 9.4679 1.7592
C 0.3112 17.5100 1.8367
C -4.6479 10.0175 1.7641
C 0.8465 13.6005 1.8126
C -0.6745 13.7180 1.7952
C 1.4237 15.0108 1.8220
C 0.2151 15.9733 1.8122
O -1.0899 15.1765 1.7911
C -1.5312 12.4380 1.7966
C -0.8723 11.0623 1.8174
C -3.0410 12.2316 1.7761
C -3.2694 10.7034 1.7869
O -1.9267 9.9726 1.8143
C 0.6641 10.9606 1.8267
C 1.5265 12.2187 1.8246
C 1.5963 9.7555 1.8125
C 3.0343 10.3205 1.7991
O 2.9973 11.8491 1.8114
H 2.5268 15.2983 1.8399
H -3.8419 13.0424 1.7539
H 1.2933 8.6564 1.8026
N 4.2191 7.9617 1.7232
H 5.3376 9.9744 1.7522
H -0.6382 18.1409 1.8250
N 1.6634 18.1805 1.8821
H -4.7196 8.8801 1.7850
N -5.9045 10.8527 1.7088
O 6.076758800732573 7.122936272803349 2.0505
C 4.78348833041115 6.994788348143579 1.7104000000000001
O 4.297664847173292 5.940991217223859 1.4240000000000002
H 6.447738482995595 6.17903407164688 2.2433
X 5.80983748245124 6.399339366453697 1.6915417074286854
O 1.2648878022973942 20.179401908119114 2.2094
C 2.121500042171409 19.202065798841442 1.8693000000000002
O 3.2612477215482305 19.4199833918787 1.5829000000000002
H 1.8167918097011464 21.03027161413272 2.4022
X 2.0888517561022875 20.3800577650891 1.928681573593547
O -7.427098251203366 9.497666651542314 2.0361000000000002
C -7.017444606354305 10.731017490217944 1.6960000000000002
O -7.782037245101959 11.603892593983023 1.4096000000000002
H -8.440261063981493 9.543256176693538 2.2289000000000003
X -7.293198308935191 11.170361638357091 1.6780027198783456
0 22 S
0 16 S
0 21 D
1 24 D
1 23 S
1 6 S
2 25 S
2 26 D
2 11 S
3 4 A
3 5 A
3 14 A
4 8 A
4 7 A
5 6 A
5 18 S
6 7 A
8 9 A
8 10 A
9 13 A
9 12 A
10 11 A
10 19 S
11 12 A
13 14 A
13 15 A
14 17 A
15 16 A
15 20 S
16 17 A
27 28 S
28 29 A
27 30 S
21 28 S
31 30 S
32 33 S
33 34 A
32 35 S
24 33 S
36 35 S
37 38 S
38 39 A
37 40 S
26 38 S
41 40 S
