36
mol to xyz file
C 3.5999 19.6892 1.8211
C 2.8427 21.0106 1.7331
C 1.3012 21.0163 1.6823
C 0.5323 19.6998 1.7275
C 1.2982 18.3640 1.8004
C 2.8234 18.3588 1.8492
C 3.2957 16.8975 1.8862
N 2.0528 16.0201 1.8571
C 0.8162 16.9057 1.8020
C -0.9699 20.0200 1.6693
N -1.1061 21.5338 1.5810
C 0.2812 22.1617 1.5857
C 5.1049 20.0000 1.8530
N 5.2544 21.5129 1.7825
C 3.8734 22.1491 1.7077
O -0.6164 16.4339 1.7369
O 4.7265 16.4164 1.9270
O 6.2294 18.9951 1.9411
O 3.5746 23.6262 1.6195
O 0.5942 23.6372 1.5108
O -2.1026 19.0209 1.6949
O 2.9235919298470683 14.17723749158728 2.1844
C 1.8557689986193775 14.917996958313356 1.8443
O 0.8027382861196148 14.430514478082278 1.5579
H 2.5942064148041295 13.218028196136126 2.3772
X 2.0441885982081116 13.771014816098058 1.9161448531032386
O -3.136919933281 21.707556175684648 1.9083
C -1.9597365947231824 22.25820105890964 1.5682
O -1.851722306043691 23.413556313124147 1.2818
H -3.800493445527578 22.47452911122067 2.1011
X -3.0491823539563097 22.663738826863053 1.480672332608344
O 6.474419794573652 23.145680607077527 2.1098
C 6.320352523852721 21.855241272551257 1.7697
O 7.244420231378866 21.153378236120805 1.4833
H 7.476152056714655 23.30414121728041 2.3026
X 7.2069113710329695 22.630738956426665 1.8052513324444663
0 12 S
0 5 A
0 1 A
1 2 A
1 14 S
2 3 A
2 11 S
3 9 S
3 4 A
4 5 A
4 8 S
5 6 S
6 7 S
6 16 D
7 8 S
8 15 D
9 10 S
9 20 D
10 11 S
11 19 D
12 17 D
12 13 S
13 14 S
14 18 D
21 22 S
22 23 A
21 24 S
7 22 S
25 24 S
26 27 S
27 28 A
26 29 S
10 27 S
30 29 S
31 32 S
32 33 A
31 34 S
13 32 S
35 34 S
