33
mol to xyz file
C 3.5999 19.6892 1.8211
C 2.8427 21.0106 1.7331
C 1.3012 21.0163 1.6823
C 0.5323 19.6998 1.7275
C 1.2982 18.3640 1.8004
C 2.8234 18.3588 1.8492
C 3.2957 16.8975 1.8862
N 2.0528 16.0201 1.8571
C 0.8162 16.9057 1.8020
C -0.9699 20.0200 1.6693
N -1.1061 21.5338 1.5810
C 0.2812 22.1617 1.5857
C 5.1049 20.0000 1.8530
N 5.2544 21.5129 1.7825
C 3.8734 22.1491 1.7077
O -0.6164 16.4339 1.7369
O 4.7265 16.4164 1.9270
O 6.2294 18.9951 1.9411
O 3.5746 23.6262 1.6195
O 0.5942 23.6372 1.5108
O -2.1026 19.0209 1.6949
N 2.3400500336075125 15.033978142320898 1.8734
H 2.111359992580608 14.66174197382687 0.9436999999999999
H 1.6980618763508446 14.567530100260273 2.5258
X 2.0441885982081116 13.771014816098058 1.9161448531032386
N -2.103499259938081 21.779041954557062 1.5973
H -2.3111554662451153 22.163408706477895 0.6675999999999999
H -2.1857118792254573 22.568322421330382 2.2497
X -3.0491823539563097 22.663738826863053 1.480672332608344
N 5.965236098448681 22.254291220033156 1.7988
H 6.401939701090034 22.242090259412585 0.8690999999999999
H 6.689988077594285 21.93109292374351 2.4512
X 7.2069113710329695 22.630738956426665 1.8052513324444663
0 12 S
0 5 A
0 1 A
1 2 A
1 14 S
2 3 A
2 11 S
3 9 S
3 4 A
4 5 A
4 8 S
5 6 S
6 7 S
6 16 D
7 8 S
8 15 D
9 10 S
9 20 D
10 11 S
11 19 D
12 17 D
12 13 S
13 14 S
14 18 D
21 22 S
21 23 S
7 22 S
24 23 S
25 26 S
25 27 S
10 26 S
28 27 S
29 30 S
29 31 S
13 30 S
32 31 S
