30
mol to xyz file
C -1.4213 21.3126 1.6946
C -0.6366 20.1752 1.6366
O -1.3868 19.0077 1.6187
B -2.7441 19.5604 1.6730
O -2.7790 21.0256 1.7216
C 0.7655 20.2887 1.6027
C 1.3588 21.5377 1.6274
O 2.7448 21.4727 1.5882
B 2.9442 20.0207 1.5356
O 1.6923 19.2569 1.5444
C 0.5604 22.6948 1.6864
C -0.8176 22.5830 1.7197
O -1.4536 23.8152 1.7768
B -0.2954 24.7147 1.7750
O 0.9915 24.0138 1.7177
O -3.8775788641373357 17.866396908339915 2.0003
C -3.7908119751320846 19.1631011564136 1.6602000000000001
O -4.750120885545197 19.815971177475994 1.3738000000000001
H -4.869717684379008 17.656068946885753 2.1931000000000003
X -4.571098047418301 18.248496850641594 1.6793558775330113
O 4.9824179983836245 20.03009154220832 1.8629000000000002
C 3.859463664435771 19.375917281122078 1.5228000000000002
O 3.8556811277879657 18.215530042991414 1.2364000000000002
H 5.712211702477395 19.325834174859498 2.0557000000000003
X 4.992831447047675 19.096024869099313 1.4507249375666718
O -1.3277325389107268 26.472172713616384 2.1023
C -0.1978608034823371 25.830019880188054 1.7622
O 0.8072815484760841 26.40984890869516 1.4758
H -1.0855736469805235 27.457026185488793 2.2951
X -0.5172217417836567 26.95159344533455 1.853586877965565
0 11 A
0 1 A
0 4 S
1 5 A
1 2 S
2 3 S
3 4 S
5 6 A
5 9 S
6 10 A
6 7 S
7 8 S
8 9 S
10 11 A
10 14 S
11 12 S
12 13 S
13 14 S
15 16 S
16 17 A
15 18 S
3 16 S
19 18 S
20 21 S
21 22 A
20 23 S
8 21 S
24 23 S
25 26 S
26 27 A
25 28 S
13 26 S
29 28 S
