27
mol to xyz file
C -1.4213 21.3126 1.6946
C -0.6366 20.1752 1.6366
O -1.3868 19.0077 1.6187
B -2.7441 19.5604 1.6730
O -2.7790 21.0256 1.7216
C 0.7655 20.2887 1.6027
C 1.3588 21.5377 1.6274
O 2.7448 21.4727 1.5882
B 2.9442 20.0207 1.5356
O 1.6923 19.2569 1.5444
C 0.5604 22.6948 1.6864
C -0.8176 22.5830 1.7197
O -1.4536 23.8152 1.7768
B -0.2954 24.7147 1.7750
O 0.9915 24.0138 1.7177
N -3.389181095470546 18.76113829050397 1.6893
H -3.825336190152914 18.736085678212728 0.7595999999999999
H -4.138835506814051 19.02140898334745 2.3417
X -4.571098047418301 18.248496850641594 1.6793558775330113
N 3.9550458672608393 19.83865733290879 1.5519
H 4.186459210726546 19.468108058903265 0.6222
H 4.086723824770726 19.056107982703946 2.2043
X 4.992831447047675 19.096024869099313 1.4507249375666718
N -0.6601209081129126 25.674870588585847 1.7913
H -0.4617407362477476 26.064106002456104 0.8615999999999998
H -0.05723841252531192 26.190869877843177 2.4436999999999998
X -0.5172217417836567 26.95159344533455 1.853586877965565
0 11 A
0 1 A
0 4 S
1 5 A
1 2 S
2 3 S
3 4 S
5 6 A
5 9 S
6 10 A
6 7 S
7 8 S
8 9 S
10 11 A
10 14 S
11 12 S
12 13 S
13 14 S
15 16 S
15 17 S
3 16 S
18 17 S
19 20 S
19 21 S
8 20 S
22 21 S
23 24 S
23 25 S
13 24 S
26 25 S
