48
mol to xyz file
C -0.6340 20.0456 1.7721
C -1.4295 21.2429 1.7452
C -2.8520 21.1164 1.7435
C -3.4386 19.8620 1.7657
C -2.6855 18.7289 1.8013
C -1.3016 18.7839 1.8114
O -3.4473 17.5718 1.8398
B -4.7935 18.1457 1.8212
O -4.8011 19.6085 1.7757
C 0.7893 20.1351 1.7673
C 1.4285 21.4226 1.7950
C 1.6098 18.9670 1.7273
C 2.9896 19.0859 1.7374
C 3.5948 20.3044 1.7737
C 2.8556 21.4754 1.7967
O 4.9783 20.2237 1.7637
B 5.1541 18.7715 1.7173
O 3.8904 18.0334 1.6983
C -0.7948 22.5202 1.7402
C 0.6388 22.6104 1.8008
C 1.2385 23.9051 1.8585
C 0.4465 25.0406 1.8182
C -0.9086 24.9554 1.7243
C -1.5521 23.7296 1.6832
O -1.5290 26.1941 1.6865
B -0.3616 27.0726 1.7719
O 0.9068 26.3472 1.8568
H -3.5343 21.9466 1.7409
H -0.8004 17.8348 1.8669
H 1.2314 17.9627 1.6712
H 3.4286 22.3845 1.7998
H 2.2956 24.0802 1.9404
H -2.6228 23.7709 1.6015
O -5.922023009048159 16.44839135745767 2.1485
C -5.839046330738747 17.745343658375763 1.8084
O -6.800259268315568 18.395407146532836 1.522
H -6.913542872384731 16.235164598796796 2.3413
X -6.642659522285713 16.86558689446524 1.8481801612306323
O 7.1921009760309715 18.74030974997211 2.0446
C 6.0563449354770995 18.10862263094451 1.7045000000000001
O 6.029460402090414 16.948540706309625 1.4181000000000001
H 7.907728602540432 18.02166213801167 2.2374
X 7.187521937015765 17.81049590951731 1.6919982170917154
O -1.357756602901556 28.850827441160337 2.0992
C -0.2412605567266703 28.185690629011255 1.7591
O 0.7755353056861338 28.744831956566465 1.4727000000000001
H -1.0954972260096432 29.830519897614025 2.2920000000000003
X -0.5457884807213029 29.314239828835056 1.7696300763284434
0 5 A
0 1 A
0 9 A
1 2 A
1 18 A
2 3 A
2 27 S
3 8 S
3 4 A
4 5 A
4 6 S
5 28 S
6 7 S
7 8 S
9 11 A
9 10 A
10 19 A
10 14 A
11 29 S
11 12 A
12 17 S
12 13 A
13 14 A
13 15 S
14 30 S
15 16 S
16 17 S
18 23 A
18 19 A
19 20 A
20 31 S
20 21 A
21 26 S
21 22 A
22 24 S
22 23 A
23 32 S
24 25 S
25 26 S
33 34 S
34 35 A
33 36 S
7 34 S
37 36 S
38 39 S
39 40 A
38 41 S
16 39 S
42 41 S
43 44 S
44 45 A
43 46 S
25 44 S
47 46 S
