45
mol to xyz file
C -0.6340 20.0456 1.7721
C -1.4295 21.2429 1.7452
C -2.8520 21.1164 1.7435
C -3.4386 19.8620 1.7657
C -2.6855 18.7289 1.8013
C -1.3016 18.7839 1.8114
O -3.4473 17.5718 1.8398
B -4.7935 18.1457 1.8212
O -4.8011 19.6085 1.7757
C 0.7893 20.1351 1.7673
C 1.4285 21.4226 1.7950
C 1.6098 18.9670 1.7273
C 2.9896 19.0859 1.7374
C 3.5948 20.3044 1.7737
C 2.8556 21.4754 1.7967
O 4.9783 20.2237 1.7637
B 5.1541 18.7715 1.7173
O 3.8904 18.0334 1.6983
C -0.7948 22.5202 1.7402
C 0.6388 22.6104 1.8008
C 1.2385 23.9051 1.8585
C 0.4465 25.0406 1.8182
C -0.9086 24.9554 1.7243
C -1.5521 23.7296 1.6832
O -1.5290 26.1941 1.6865
B -0.3616 27.0726 1.7719
O 0.9068 26.3472 1.8568
H -3.5343 21.9466 1.7409
H -0.8004 17.8348 1.8669
H 1.2314 17.9627 1.6712
H 3.4286 22.3845 1.7998
H 2.2956 24.0802 1.9404
H -2.6228 23.7709 1.6015
N -5.452126046804196 17.357562556103904 1.8375
H -5.888645140913693 17.33995629364349 0.9077999999999998
H -6.197229954045827 17.63058771504215 2.4899
X -6.642659522285713 16.86558689446524 1.8481801612306323
N 6.163710443922244 18.582725924652962 1.7336
H 6.392649613126544 18.210642927454696 0.8039
H 6.2901712099418585 17.79931655232089 2.386
X 7.187521937015765 17.81049590951731 1.6919982170917154
N -0.711934984580293 28.03811245387055 1.7882
H -0.5077616687821519 28.424340569258327 0.8584999999999999
H -0.10141060481861863 28.545046918783544 2.4406
X -0.5457884807213029 29.314239828835056 1.7696300763284434
0 5 A
0 1 A
0 9 A
1 2 A
1 18 A
2 3 A
2 27 S
3 8 S
3 4 A
4 5 A
4 6 S
5 28 S
6 7 S
7 8 S
9 11 A
9 10 A
10 19 A
10 14 A
11 29 S
11 12 A
12 17 S
12 13 A
13 14 A
13 15 S
14 30 S
15 16 S
16 17 S
18 23 A
18 19 A
19 20 A
20 31 S
20 21 A
21 26 S
21 22 A
22 24 S
22 23 A
23 32 S
24 25 S
25 26 S
33 34 S
33 35 S
7 34 S
36 35 S
37 38 S
37 39 S
16 38 S
40 39 S
41 42 S
41 43 S
25 42 S
44 43 S
