42
mol to xyz file
C -2.9236 1.3881 0.0000
C -2.1536 0.0544 0.0000
C -0.6136 0.0544 0.0000
C 0.1564 1.3881 0.0000
C -0.6136 2.7218 0.0000
C -2.1536 2.7218 0.0000
N 0.1564 -1.2793 -0.0000
C -0.6136 -2.6129 -0.0000
C -2.1536 -2.6129 -0.0000
N -2.9236 -1.2793 -0.0000
N 0.1564 4.0555 -0.0000
C 1.6964 4.0555 -0.0000
C 2.4664 2.7218 -0.0000
N 1.6964 1.3881 -0.0000
N -4.4636 1.3881 -0.0000
C -5.2336 2.7218 -0.0000
C -4.4636 4.0555 -0.0000
N -2.9236 4.0555 -0.0000
O 3.9727 3.0420 -0.0000
B 4.1337 4.5735 -0.0000
O 2.7269 5.1999 -0.0000
O -5.4941 5.1999 -0.0000
B -6.9009 4.5735 -0.0000
O -6.7400 3.0420 -0.0000
O -2.6295 -4.0776 -0.0000
B -1.3836 -4.9828 -0.0000
O -0.1377 -4.0776 -0.0000
O 5.332888458284804 6.221640725641022 0.32730000000000004
C 5.195219550075029 4.929349089936322 -0.012799999999999999
O 6.128124982758456 4.239276409945476 -0.29919999999999997
H 6.332527832701747 6.392808512082581 0.5201
X 6.117942996667116 5.628591528492235 -0.0
O -8.932835588657024 4.733682937758776 0.32730000000000004
C -7.759357780201647 5.2921811320824155 -0.012799999999999999
O -7.659065656776645 6.448232316061267 -0.29919999999999997
H -9.601518982271326 5.496204943411375 0.5201
X -8.806742996667115 5.764391528492236 -0.0
O -0.5006903020275099 -6.819887715713686 0.32730000000000004
C -1.5733685410280047 -6.086176740209845 -0.012799999999999999
O -2.623165973912594 -6.580583657545077 -0.29919999999999997
H -0.8237515505220041 -7.781245463756099 0.5201
X -1.462 -7.2286 -0.0
0 1 A
0 14 A
0 5 A
1 2 A
1 9 A
2 3 A
2 6 A
3 13 A
3 4 A
4 5 A
4 10 A
5 17 A
6 7 A
7 8 A
7 26 S
8 9 A
8 24 S
10 11 A
11 20 S
11 12 A
12 18 S
12 13 A
14 15 A
15 23 S
15 16 A
16 21 S
16 17 A
18 19 S
19 20 S
21 22 S
22 23 S
24 25 S
25 26 S
27 28 S
28 29 A
27 30 S
19 28 S
31 30 S
32 33 S
33 34 A
32 35 S
22 33 S
36 35 S
37 38 S
38 39 A
37 40 S
25 38 S
41 40 S
