39
mol to xyz file
C -2.9236 1.3881 0.0000
C -2.1536 0.0544 0.0000
C -0.6136 0.0544 0.0000
C 0.1564 1.3881 0.0000
C -0.6136 2.7218 0.0000
C -2.1536 2.7218 0.0000
N 0.1564 -1.2793 -0.0000
C -0.6136 -2.6129 -0.0000
C -2.1536 -2.6129 -0.0000
N -2.9236 -1.2793 -0.0000
N 0.1564 4.0555 -0.0000
C 1.6964 4.0555 -0.0000
C 2.4664 2.7218 -0.0000
N 1.6964 1.3881 -0.0000
N -4.4636 1.3881 -0.0000
C -5.2336 2.7218 -0.0000
C -4.4636 4.0555 -0.0000
N -2.9236 4.0555 -0.0000
O 3.9727 3.0420 -0.0000
B 4.1337 4.5735 -0.0000
O 2.7269 5.1999 -0.0000
O -5.4941 5.1999 -0.0000
B -6.9009 4.5735 -0.0000
O -6.7400 3.0420 -0.0000
O -2.6295 -4.0776 -0.0000
B -1.3836 -4.9828 -0.0000
O -0.1377 -4.0776 -0.0000
N 4.840900613712084 5.31835984719627 0.016300000000000002
H 5.27765867915743 5.308295441181006 -0.9134
H 5.567225046560285 4.998710995723689 0.6687000000000001
X 6.117942996667116 5.628591528492235 -0.0
N -7.897675609401008 4.821264574754439 0.016300000000000002
H -8.104358709040497 5.206155463609208 -0.9134
H -7.977891097905411 5.610750512187147 0.6687000000000001
X -8.806742996667115 5.764391528492236 -0.0
N -1.0944417684675452 -5.968364009659963 0.016300000000000002
H -1.3224108813134365 -6.341042132962441 -0.9134
H -1.7355258669587568 -6.436053809272602 0.6687000000000001
X -1.462 -7.2286 -0.0
0 1 A
0 14 A
0 5 A
1 2 A
1 9 A
2 3 A
2 6 A
3 13 A
3 4 A
4 5 A
4 10 A
5 17 A
6 7 A
7 8 A
7 26 S
8 9 A
8 24 S
10 11 A
11 20 S
11 12 A
12 18 S
12 13 A
14 15 A
15 23 S
15 16 A
16 21 S
16 17 A
18 19 S
19 20 S
21 22 S
22 23 S
24 25 S
25 26 S
27 28 S
27 29 S
19 28 S
30 29 S
31 32 S
31 33 S
22 32 S
34 33 S
35 36 S
35 37 S
25 36 S
38 37 S
