44
Properties=species:S:1:pos:R:3 mol=T to=T xyz=T file=T pbc="F F F"
C 1.68350000 29.76910000 19.26650000
C 1.68350000 30.53290000 18.06630000
C 1.68350000 31.97090000 18.06630000
C 1.68350000 30.53290000 20.46670000
C 1.68350000 31.97090000 20.46670000
C 1.68350000 32.73260000 19.26650000
C 1.68350000 37.05160000 19.26650000
C 1.68350000 34.26100000 19.26650000
C 1.68350000 35.52320000 19.26650000
C 1.68350000 37.81330000 18.06630000
H 1.68350000 30.03060000 17.10240000
H 1.68350000 32.51440000 17.12490000
H 1.68350000 37.24330000 17.07900000
C 1.68350000 37.81330000 20.46670000
H 1.68350000 30.03060000 21.43060000
H 1.68350000 32.51440000 21.40810000
Cl 1.68350000 37.13540093 21.64089255
C 1.68350000 47.29690000 19.26650000
C 1.68350000 46.53310000 20.46670000
C 1.68350000 45.09510000 20.46670000
C 1.68350000 46.53310000 18.06630000
C 1.68350000 45.09510000 18.06630000
C 1.68350000 44.33340000 19.26650000
C 1.68350000 40.01440000 19.26650000
C 1.68350000 42.80500000 19.26650000
C 1.68350000 41.54280000 19.26650000
C 1.68350000 39.25270000 20.46670000
H 1.68350000 47.03540000 21.43060000
H 1.68350000 44.55160000 21.40810000
H 1.68350000 39.82270000 21.45400000
C 1.68350000 39.25270000 18.06630000
H 1.68350000 47.03540000 17.10240000
H 1.68350000 44.55160000 17.12490000
H 1.68350000 39.82270000 17.07900000
O 2.566409697972489 27.932012284286316 19.5938
C 1.493731458971996 28.665723259790155 19.2537
O 0.4439340260874063 28.171316342454926 18.9673
H 2.2433484494779954 26.970654536243902 19.7866
X 1.6835 27.5191 19.2665
O 0.8005903020275141 49.13398771571369 19.5938
C 1.8732685410280057 48.40027674020985 19.2537
O 2.9230659739125935 48.89468365754508 18.9673
H 1.1236515505220088 50.095345463756104 19.7866
X 1.6835 49.5469 19.2665
0 1 A
0 3 A
1 2 A
1 10 S
3 4 A
3 14 S
2 5 A
2 11 S
5 4 A
5 7 S
4 15 S
7 8 T
6 8 S
6 9 A
6 13 A
9 12 S
9 30 A
13 16 S
13 26 A
30 23 A
30 33 S
26 23 A
26 29 S
17 20 A
17 18 A
20 31 S
20 21 A
18 27 S
18 19 A
19 22 A
19 28 S
22 21 A
22 24 S
21 32 S
24 25 T
23 25 S
34 35 S
35 36 A
34 37 S
35 0 S
38 37 S
39 40 S
40 41 A
39 42 S
40 17 S
43 42 S
