44
mol to xyz file
C 1.6835 29.7691 19.2665
C 1.6835 30.5329 18.0663
C 1.6835 31.9709 18.0663
C 1.6835 30.5329 20.4667
C 1.6835 31.9709 20.4667
C 1.6835 32.7326 19.2665
C 1.6835 37.0516 19.2665
C 1.6835 34.2610 19.2665
C 1.6835 35.5232 19.2665
C 1.6835 37.8133 18.0663
H 1.6835 30.0306 17.1024
H 1.6835 32.5144 17.1249
H 1.6835 37.2433 17.0790
C 1.6835 37.8133 20.4667
H 1.6835 30.0306 21.4306
H 1.6835 32.5144 21.4081
H 1.6835 37.2433 21.4540
C 1.6835 47.2969 19.2665
C 1.6835 46.5331 20.4667
C 1.6835 45.0951 20.4667
C 1.6835 46.5331 18.0663
C 1.6835 45.0951 18.0663
C 1.6835 44.3334 19.2665
C 1.6835 40.0144 19.2665
C 1.6835 42.8050 19.2665
C 1.6835 41.5428 19.2665
C 1.6835 39.2527 20.4667
H 1.6835 47.0354 21.4306
H 1.6835 44.5516 21.4081
H 1.6835 39.8227 21.4540
C 1.6835 39.2527 18.0663
H 1.6835 47.0354 17.1024
H 1.6835 44.5516 17.1249
H 1.6835 39.8227 17.0790
O 2.566409697972489 27.932012284286316 19.5938
C 1.493731458971996 28.665723259790155 19.2537
O 0.4439340260874063 28.171316342454926 18.9673
H 2.2433484494779954 26.970654536243902 19.7866
X 1.6835 27.5191 19.2665
O 0.8005903020275141 49.13398771571369 19.5938
C 1.8732685410280057 48.40027674020985 19.2537
O 2.9230659739125935 48.89468365754508 18.9673
H 1.1236515505220088 50.095345463756104 19.7866
X 1.6835 49.5469 19.2665
0 1 A
0 3 A
1 2 A
1 10 S
2 5 A
2 11 S
3 4 A
3 14 S
4 5 A
4 15 S
5 7 S
6 8 S
6 9 A
6 13 A
7 8 T
9 12 S
9 30 A
13 16 S
13 26 A
17 20 A
17 18 A
18 27 S
18 19 A
19 22 A
19 28 S
20 31 S
20 21 A
21 22 A
21 32 S
22 24 S
23 30 A
23 26 A
23 25 S
24 25 T
26 29 S
30 33 S
34 35 S
35 36 A
34 37 S
35 0 S
38 37 S
39 40 S
40 41 A
39 42 S
40 17 S
43 42 S
