42
mol to xyz file
C 1.6835 29.7691 19.2665
C 1.6835 30.5329 18.0663
C 1.6835 31.9709 18.0663
C 1.6835 30.5329 20.4667
C 1.6835 31.9709 20.4667
C 1.6835 32.7326 19.2665
C 1.6835 37.0516 19.2665
C 1.6835 34.2610 19.2665
C 1.6835 35.5232 19.2665
C 1.6835 37.8133 18.0663
H 1.6835 30.0306 17.1024
H 1.6835 32.5144 17.1249
H 1.6835 37.2433 17.0790
C 1.6835 37.8133 20.4667
H 1.6835 30.0306 21.4306
H 1.6835 32.5144 21.4081
H 1.6835 37.2433 21.4540
C 1.6835 47.2969 19.2665
C 1.6835 46.5331 20.4667
C 1.6835 45.0951 20.4667
C 1.6835 46.5331 18.0663
C 1.6835 45.0951 18.0663
C 1.6835 44.3334 19.2665
C 1.6835 40.0144 19.2665
C 1.6835 42.8050 19.2665
C 1.6835 41.5428 19.2665
C 1.6835 39.2527 20.4667
H 1.6835 47.0354 21.4306
H 1.6835 44.5516 21.4081
H 1.6835 39.8227 21.4540
C 1.6835 39.2527 18.0663
H 1.6835 47.0354 17.1024
H 1.6835 44.5516 17.1249
H 1.6835 39.8227 17.0790
N 1.9726582315324537 28.783535990340038 19.2828
H 1.7446891186865605 28.41085786703756 18.3531
H 1.33157413304124 28.3158461907274 19.935200000000002
X 1.6835 27.5191 19.2665
N 1.3943417684675496 48.28246400965997 19.2828
H 1.6223108813134457 48.65514213296244 18.3531
H 2.035425866958763 48.7501538092726 19.935200000000002
X 1.6835 49.5469 19.2665
0 1 A
0 3 A
1 2 A
1 10 S
2 5 A
2 11 S
3 4 A
3 14 S
4 5 A
4 15 S
5 7 S
6 8 S
6 9 A
6 13 A
7 8 T
9 12 S
9 30 A
13 16 S
13 26 A
17 20 A
17 18 A
18 27 S
18 19 A
19 22 A
19 28 S
20 31 S
20 21 A
21 22 A
21 32 S
22 24 S
23 30 A
23 26 A
23 25 S
24 25 T
26 29 S
30 33 S
34 35 S
34 36 S
35 0 S
37 36 S
38 39 S
38 40 S
39 17 S
41 40 S
