40
Properties=species:S:1:pos:R:3 mol=T to=T xyz=T file=T pbc="F F F"
C 1.68350000 29.76910000 19.26650000
C 1.68350000 30.53290000 18.06630000
C 1.68350000 31.97090000 18.06630000
C 1.68350000 30.53290000 20.46670000
C 1.68350000 31.97090000 20.46670000
C 1.68350000 32.73260000 19.26650000
C 1.68350000 37.05160000 19.26650000
C 1.68350000 34.26100000 19.26650000
C 1.68350000 35.52320000 19.26650000
C 1.68350000 37.81330000 18.06630000
H 1.68350000 30.03060000 17.10240000
H 1.68350000 32.51440000 17.12490000
H 1.68350000 37.24330000 17.07900000
C 1.68350000 37.81330000 20.46670000
H 1.68350000 30.03060000 21.43060000
H 1.68350000 32.51440000 21.40810000
H 1.68350000 37.24330000 21.45400000
C 1.68350000 47.29690000 19.26650000
C 1.68350000 46.53310000 20.46670000
C 1.68350000 45.09510000 20.46670000
C 1.68350000 46.53310000 18.06630000
C 1.68350000 45.09510000 18.06630000
C 1.68350000 44.33340000 19.26650000
C 1.68350000 40.01440000 19.26650000
C 1.68350000 42.80500000 19.26650000
C 1.68350000 41.54280000 19.26650000
C 1.68350000 39.25270000 20.46670000
H 1.68350000 47.03540000 21.43060000
N 1.68350000 44.37532588 21.71342558
H 1.68350000 39.82270000 21.45400000
C 1.68350000 39.25270000 18.06630000
H 1.68350000 47.03540000 17.10240000
H 1.68350000 44.55160000 17.12490000
H 1.68350000 39.82270000 17.07900000
O 2.49613159 44.71195708 22.67285779
O 0.87094271 43.37606098 21.90158497
F 1.6834999999999964 28.329145080566757 19.2665
X 1.6835 27.5191 19.2665
F 1.6834999999999996 48.73685491943324 19.2665
X 1.6835 49.5469 19.2665
0 1 A
0 3 A
1 2 A
1 10 S
3 4 A
3 14 S
2 5 A
2 11 S
5 4 A
5 7 S
4 15 S
7 8 T
6 8 S
6 9 A
6 13 A
9 12 S
9 30 A
13 16 S
13 26 A
30 23 A
30 33 S
26 23 A
26 29 S
17 20 A
17 18 A
20 31 S
20 21 A
18 27 S
18 19 A
19 22 A
19 28 S
22 21 A
22 24 S
28 34 D
28 35 S
21 32 S
24 25 T
23 25 S
37 36 S
39 38 S
