38
Properties=species:S:1:pos:R:3 mol=T to=T xyz=T file=T pbc="F F F"
C 7.88130000 14.23060000 5.22160000
C 7.87890000 12.69070000 5.22970000
C 10.54760000 14.22710000 5.17970000
C 9.21560000 14.99870000 5.19790000
C 9.21110000 11.91870000 5.22080000
C 10.54500000 12.68770000 5.20150000
H 6.89500000 14.80210000 5.23380000
C 11.87770000 11.91810000 5.22100000
C 11.87840000 10.38000000 5.29190000
C 14.54470000 11.92120000 5.23710000
H 10.89140000 9.80970000 5.30980000
C 13.21040000 12.68830000 5.18700000
C 13.21300000 9.61320000 5.35050000
H 13.20900000 13.82690000 5.12860000
C 14.54630000 10.38370000 5.32300000
H 15.53410000 9.81620000 5.36610000
H 9.21000000 10.77860000 5.23220000
F 11.72292580 14.90258827 5.15520166
O 5.948858337673226 12.03544433105626 5.557
C 6.806405590763901 13.011960131602589 5.216900000000001
O 6.44201707114726 14.113656031917914 4.9305
H 5.033400980423991 12.47192470525222 5.7498000000000005
X 5.738730359692633 12.488435912907532 5.224516661533717
O 7.415038796348541 15.953896399650464 5.5252
C 8.713840796806172 15.999544659280499 5.1851
O 9.26569295845851 17.020314977069788 4.8987
H 7.104833598476178 16.919479138318138 5.718
X 8.32320784760166 16.953043199553363 5.168773834803814
O 16.473739060401957 12.579401423155199 5.5644
C 15.617683614468893 11.601577577317748 5.2243
O 15.983753624742228 10.500439258313964 4.9379
H 17.389861708046407 12.144319149932159 5.7572
X 16.68381330981368 12.124114795489938 5.210013430678162
O 15.013369719010127 8.657642735953837 5.6778
C 13.71455859543279 8.612254794033417 5.337700000000001
O 13.162501853514376 7.591595103586877 5.0513
H 15.32338138045891 7.691997842752529 5.8706000000000005
X 14.107469778248113 7.66054885297832 5.434209884007195
0 6 S
0 3 A
0 1 A
3 2 A
1 4 A
4 5 A
4 16 S
2 5 A
2 17 S
5 7 S
7 11 A
7 8 A
11 9 A
11 13 S
8 10 S
8 12 A
12 14 A
9 14 A
14 15 S
18 19 S
19 20 A
18 21 S
1 19 S
22 21 S
23 24 S
24 25 A
23 26 S
3 24 S
27 26 S
28 29 S
29 30 A
28 31 S
9 29 S
32 31 S
33 34 S
34 35 A
33 36 S
12 34 S
37 36 S
