38
mol to xyz file
C 7.8813 14.2306 5.2216
C 7.8789 12.6907 5.2297
C 10.5476 14.2271 5.1797
C 9.2156 14.9987 5.1979
C 9.2111 11.9187 5.2208
C 10.5450 12.6877 5.2015
H 6.8950 14.8021 5.2338
C 11.8777 11.9181 5.2210
C 11.8784 10.3800 5.2919
C 14.5447 11.9212 5.2371
H 10.8914 9.8097 5.3098
C 13.2104 12.6883 5.1870
C 13.2130 9.6132 5.3505
H 13.2090 13.8269 5.1286
C 14.5463 10.3837 5.3230
H 15.5341 9.8162 5.3661
H 9.2100 10.7786 5.2322
H 11.5359 14.7951 5.1591
O 5.948858337673226 12.03544433105626 5.557
C 6.806405590763901 13.011960131602589 5.216900000000001
O 6.44201707114726 14.113656031917914 4.9305
H 5.033400980423991 12.47192470525222 5.7498000000000005
X 5.738730359692633 12.488435912907532 5.224516661533717
O 7.415038796348541 15.953896399650464 5.5252
C 8.713840796806172 15.999544659280499 5.1851
O 9.26569295845851 17.020314977069788 4.8987
H 7.104833598476178 16.919479138318138 5.718
X 8.32320784760166 16.953043199553363 5.168773834803814
O 16.473739060401957 12.579401423155199 5.5644
C 15.617683614468893 11.601577577317748 5.2243
O 15.983753624742228 10.500439258313964 4.9379
H 17.389861708046407 12.144319149932159 5.7572
X 16.68381330981368 12.124114795489938 5.210013430678162
O 15.013369719010127 8.657642735953837 5.6778
C 13.71455859543279 8.612254794033417 5.337700000000001
O 13.162501853514376 7.591595103586877 5.0513
H 15.32338138045891 7.691997842752529 5.8706000000000005
X 14.107469778248113 7.66054885297832 5.434209884007195
0 6 S
0 3 A
0 1 A
1 4 A
2 3 A
2 5 A
4 5 A
7 11 A
7 8 A
8 10 S
8 12 A
9 11 A
9 14 A
11 13 S
12 14 A
14 15 S
2 17 S
4 16 S
5 7 S
18 19 S
19 20 A
18 21 S
1 19 S
22 21 S
23 24 S
24 25 A
23 26 S
3 24 S
27 26 S
28 29 S
29 30 A
28 31 S
9 29 S
32 31 S
33 34 S
34 35 A
33 36 S
12 34 S
37 36 S
