34
mol to xyz file
C 7.8813 14.2306 5.2216
C 7.8789 12.6907 5.2297
C 10.5476 14.2271 5.1797
C 9.2156 14.9987 5.1979
C 9.2111 11.9187 5.2208
C 10.5450 12.6877 5.2015
H 6.8950 14.8021 5.2338
C 11.8777 11.9181 5.2210
C 11.8784 10.3800 5.2919
C 14.5447 11.9212 5.2371
H 10.8914 9.8097 5.3098
C 13.2104 12.6883 5.1870
C 13.2130 9.6132 5.3505
H 13.2090 13.8269 5.1286
C 14.5463 10.3837 5.3230
H 15.5341 9.8162 5.3661
H 9.2100 10.7786 5.2322
H 11.5359 14.7951 5.1591
N 6.868696299547137 12.505126878047111 5.246
H 6.521621371243751 12.770452892872648 4.3163
H 6.469888312743414 13.191184280646606 5.8984000000000005
X 5.738730359692633 12.488435912907532 5.224516661533717
N 8.396148905117304 15.617932430590928 5.2142
H 8.357182997722804 16.05306523567568 4.2844999999999995
H 8.632351054425206 16.375514845026697 5.8666
X 8.32320784760166 16.953043199553363 5.168773834803814
N 15.553374778063391 12.11491136285404 5.2534
H 15.902577487775362 11.852392092076032 4.3237
H 15.957700805441123 11.432091449857248 5.9058
X 16.68381330981368 12.124114795489938 5.210013430678162
N 14.03285575011931 8.994503427360149 5.3668000000000005
H 14.072106122284813 8.5593961896763 4.4371
H 13.797148929543543 8.236766754937555 6.0192000000000005
X 14.107469778248113 7.66054885297832 5.434209884007195
0 6 S
0 3 A
0 1 A
1 4 A
2 3 A
2 5 A
4 5 A
7 11 A
7 8 A
8 10 S
8 12 A
9 11 A
9 14 A
11 13 S
12 14 A
14 15 S
2 17 S
4 16 S
5 7 S
18 19 S
18 20 S
1 19 S
21 20 S
22 23 S
22 24 S
3 23 S
25 24 S
26 27 S
26 28 S
9 27 S
29 28 S
30 31 S
30 32 S
12 31 S
33 32 S
