35
Properties=species:S:1:pos:R:3 mol=T to=T xyz=T file=T pbc="F F F"
C 7.88130000 14.23060000 5.22160000
C 7.87890000 12.69070000 5.22970000
C 10.54760000 14.22710000 5.17970000
C 9.21560000 14.99870000 5.19790000
C 9.21110000 11.91870000 5.22080000
C 10.54500000 12.68770000 5.20150000
H 6.89500000 14.80210000 5.23380000
C 11.87770000 11.91810000 5.22100000
C 11.87840000 10.38000000 5.29190000
C 14.54470000 11.92120000 5.23710000
O 10.66933530 9.68138845 5.31382731
C 13.21040000 12.68830000 5.18700000
C 13.21300000 9.61320000 5.35050000
H 13.20900000 13.82690000 5.12860000
C 14.54630000 10.38370000 5.32300000
H 15.53410000 9.81620000 5.36610000
H 9.21000000 10.77860000 5.23220000
H 11.53590000 14.79510000 5.15910000
H 10.36626846 9.37050886 4.39793596
N 6.868696299547137 12.505126878047111 5.246
H 6.521621371243751 12.770452892872648 4.3163
H 6.469888312743414 13.191184280646606 5.8984000000000005
X 5.738730359692633 12.488435912907532 5.224516661533717
N 8.396148905117304 15.617932430590928 5.2142
H 8.357182997722804 16.05306523567568 4.2844999999999995
H 8.632351054425206 16.375514845026697 5.8666
X 8.32320784760166 16.953043199553363 5.168773834803814
N 15.553374778063391 12.11491136285404 5.2534
H 15.902577487775362 11.852392092076032 4.3237
H 15.957700805441123 11.432091449857248 5.9058
X 16.68381330981368 12.124114795489938 5.210013430678162
N 14.03285575011931 8.994503427360149 5.3668000000000005
H 14.072106122284813 8.5593961896763 4.4371
H 13.797148929543543 8.236766754937555 6.0192000000000005
X 14.107469778248113 7.66054885297832 5.434209884007195
0 6 S
0 3 A
0 1 A
3 2 A
1 4 A
4 5 A
4 16 S
2 5 A
2 17 S
5 7 S
7 11 A
7 8 A
11 9 A
11 13 S
8 10 S
8 12 A
10 18 S
12 14 A
9 14 A
14 15 S
19 20 S
19 21 S
1 20 S
22 21 S
23 24 S
23 25 S
3 24 S
26 25 S
27 28 S
27 29 S
9 28 S
30 29 S
31 32 S
31 33 S
12 32 S
34 33 S
