29
Properties=species:S:1:pos:R:3 mol=T to=T xyz=T file=T pbc="F F F"
C 7.88130000 14.23060000 5.22160000
C 7.87890000 12.69070000 5.22970000
C 10.54760000 14.22710000 5.17970000
C 9.21560000 14.99870000 5.19790000
C 9.21110000 11.91870000 5.22080000
C 10.54500000 12.68770000 5.20150000
H 6.89500000 14.80210000 5.23380000
C 11.87770000 11.91810000 5.22100000
C 11.87840000 10.38000000 5.29190000
C 14.54470000 11.92120000 5.23710000
H 10.89140000 9.80970000 5.30980000
C 13.21040000 12.68830000 5.18700000
C 13.21300000 9.61320000 5.35050000
H 13.20900000 13.82690000 5.12860000
C 14.54630000 10.38370000 5.32300000
H 15.53410000 9.81620000 5.36610000
H 9.21000000 10.77860000 5.23220000
C 11.84816333 14.97456532 5.15259122
F 12.21540766 15.30379699 6.44394534
F 11.74224024 16.13583163 4.40824706
F 12.82636059 14.17339865 4.59357739
F 6.4484563069057135 12.855930175472817 5.2297
X 5.738730359692633 12.488435912907532 5.224516661533717
F 8.35766677390973 16.155169087165902 5.1979
X 8.32320784760166 16.953043199553363 5.168773834803814
F 15.975081260104414 11.755430217644744 5.2371
X 16.68381330981368 12.124114795489938 5.210013430678162
F 14.071114974003859 8.456865765710297 5.3505
X 14.107469778248113 7.66054885297832 5.434209884007195
0 6 S
0 3 A
0 1 A
3 2 A
1 4 A
4 5 A
4 16 S
2 5 A
2 17 S
5 7 S
7 11 A
7 8 A
11 9 A
11 13 S
8 10 S
8 12 A
12 14 A
9 14 A
14 15 S
17 18 S
17 19 S
17 20 S
22 21 S
24 23 S
26 25 S
28 27 S
