50
Properties=species:S:1:pos:R:3 mol=T to=T xyz=T file=T pbc="F F F"
C 11.44970000 12.20800000 5.26090000
C 7.88240000 14.23320000 5.26090000
C 11.44720000 10.66810000 5.26900000
C 7.88000000 12.69320000 5.26900000
C 14.11600000 12.20450000 5.21900000
C 10.54870000 14.22970000 5.21900000
C 12.78390000 12.97610000 5.23720000
C 9.21670000 15.00130000 5.23720000
C 12.77940000 9.89610000 5.26010000
C 9.21210000 11.92130000 5.26010000
C 14.11330000 10.66510000 5.24080000
C 10.54610000 12.69030000 5.24080000
H 9.21110000 10.78120000 5.27150000
H 11.53700000 14.79770000 5.19840000
H 6.89610000 14.80470000 5.27310000
H 10.45910000 10.09970000 5.28150000
H 15.10400000 12.77240000 5.18950000
N 12.78579417 14.41567253 5.23202259
H 12.77770000 8.75620000 5.26790000
C 14.95680000 10.19470000 5.26030000
C 14.95760000 8.65660000 5.33120000
C 17.62380000 10.19770000 5.27640000
H 13.97050000 8.08630000 5.34910000
C 16.28950000 10.96490000 5.22630000
C 16.29210000 7.88970000 5.38980000
H 16.28820000 12.10350000 5.16780000
C 17.62550000 8.66030000 5.36230000
H 18.61330000 8.09280000 5.40540000
O 12.04285764 15.08224735 6.06744112
O 13.53055711 15.07424846 4.39190976
O 5.8794872885089795 12.302854382421364 5.5963
C 6.860313541366994 13.15546816468418 5.256200000000001
O 6.647052347695147 14.296096286936855 4.9698
H 5.030878582527494 12.858228629332785 5.7891
X 5.7766503338077175 12.691222814667402 5.26890970373002
O 7.297377235978373 15.687318175785737 5.5645
C 8.576076376520803 15.919479559258638 5.2244
O 8.975218931616578 17.009065751678317 4.938
H 6.851388677927102 16.598181225913113 5.7573
X 8.160183127016818 16.814612783023914 5.217867065853743
O 19.624027296165742 10.589505530427386 5.6037
C 18.643823560227492 9.736176147332737 5.2636
O 18.85791715181278 8.595703971415185 4.9772
H 20.473041100105867 10.034750764139506 5.7965
X 19.725996405344468 10.200624980087323 5.253312159421588
O 18.211260496083476 7.203228004742632 5.7171
C 16.932506494941304 6.971368986020292 5.377000000000001
O 16.533106309956896 5.881877204392537 5.0906
H 18.657033661083034 6.292259522649931 5.9099
X 17.350634520876632 6.077936996817827 5.460595078806041
0 2 A
0 11 S
0 6 A
2 15 S
2 8 A
11 5 A
11 9 A
6 4 A
6 17 S
1 14 S
1 7 A
1 3 A
7 5 A
3 9 A
8 10 A
8 18 S
9 12 S
4 10 A
4 16 S
10 19 S
5 13 S
17 28 D
17 29 S
19 23 A
19 20 A
23 21 A
23 25 S
20 22 S
20 24 A
24 26 A
21 26 A
26 27 S
30 31 S
31 32 A
30 33 S
3 31 S
34 33 S
35 36 S
36 37 A
35 38 S
7 36 S
39 38 S
40 41 S
41 42 A
40 43 S
21 41 S
44 43 S
45 46 S
46 47 A
45 48 S
24 46 S
49 48 S
