44
mol to xyz file
C 11.4497 12.2080 5.2609
C 7.8824 14.2332 5.2609
C 11.4472 10.6681 5.2690
C 7.8800 12.6932 5.2690
C 14.1160 12.2045 5.2190
C 10.5487 14.2297 5.2190
C 12.7839 12.9761 5.2372
C 9.2167 15.0013 5.2372
C 12.7794 9.8961 5.2601
C 9.2121 11.9213 5.2601
C 14.1133 10.6651 5.2408
C 10.5461 12.6903 5.2408
H 9.2111 10.7812 5.2715
H 11.5370 14.7977 5.1984
H 6.8961 14.8047 5.2731
H 10.4591 10.0997 5.2815
H 15.1040 12.7724 5.1895
H 12.7854 14.1161 5.2331
H 12.7777 8.7562 5.2679
C 14.9568 10.1947 5.2603
C 14.9576 8.6566 5.3312
C 17.6238 10.1977 5.2764
H 13.9705 8.0863 5.3491
C 16.2895 10.9649 5.2263
C 16.2921 7.8897 5.3898
H 16.2882 12.1035 5.1678
C 17.6255 8.6603 5.3623
H 18.6133 8.0928 5.4054
N 6.852893345952367 12.692293793027279 5.2853
H 6.559182781646304 13.015702210380653 4.3556
H 6.5839436228511845 13.438878427508728 5.9377
X 5.7766503338077175 12.691222814667402 5.26890970373002
N 8.317161173862514 15.497060829706415 5.2535
H 8.216406685831885 15.922157798810744 4.323799999999999
H 8.442665929830923 16.280623926227246 5.9059
X 8.160183127016818 16.814612783023914 5.217867065853743
N 18.65085042506675 10.186914622389217 5.2927
H 18.94086061158796 9.860183859047394 4.3629999999999995
H 18.911284371730538 9.437316910663037 5.9451
X 19.725996405344468 10.200624980087323 5.253312159421588
N 17.1918577617057 7.394336628069502 5.4061
H 17.292800044503302 6.969284213015066 4.4764
H 17.06669919018678 6.610718160972571 6.0585
X 17.350634520876632 6.077936996817827 5.460595078806041
0 2 A
0 11 S
0 6 A
1 14 S
1 7 A
1 3 A
2 15 S
2 8 A
3 9 A
4 10 A
4 6 A
4 16 S
5 7 A
5 13 S
5 11 A
6 17 S
8 10 A
8 18 S
9 12 S
9 11 A
19 23 A
19 20 A
20 22 S
20 24 A
21 23 A
21 26 A
23 25 S
24 26 A
26 27 S
10 19 S
28 29 S
28 30 S
3 29 S
31 30 S
32 33 S
32 34 S
7 33 S
35 34 S
36 37 S
36 38 S
21 37 S
39 38 S
40 41 S
40 42 S
24 41 S
43 42 S
