48
mol to xyz file
C 11.4497 12.2080 5.2609
C 7.8824 14.2332 5.2609
C 11.4472 10.6681 5.2690
C 7.8800 12.6932 5.2690
C 14.1160 12.2045 5.2190
C 10.5487 14.2297 5.2190
C 12.7839 12.9761 5.2372
C 9.2167 15.0013 5.2372
C 12.7794 9.8961 5.2601
C 9.2121 11.9213 5.2601
C 14.1133 10.6651 5.2408
C 10.5461 12.6903 5.2408
H 9.2111 10.7812 5.2715
H 11.5370 14.7977 5.1984
H 6.8961 14.8047 5.2731
H 10.4591 10.0997 5.2815
H 15.1040 12.7724 5.1895
H 12.7854 14.1161 5.2331
H 12.7777 8.7562 5.2679
C 14.9568 10.1947 5.2603
C 14.9576 8.6566 5.3312
C 17.6238 10.1977 5.2764
H 13.9705 8.0863 5.3491
C 16.2895 10.9649 5.2263
C 16.2921 7.8897 5.3898
H 16.2882 12.1035 5.1678
C 17.6255 8.6603 5.3623
H 18.6133 8.0928 5.4054
O 5.8794872885089795 12.302854382421364 5.5963
C 6.860313541366994 13.15546816468418 5.256200000000001
O 6.647052347695147 14.296096286936855 4.9698
H 5.030878582527494 12.858228629332785 5.7891
X 5.7766503338077175 12.691222814667402 5.26890970373002
O 7.297377235978373 15.687318175785737 5.5645
C 8.576076376520803 15.919479559258638 5.2244
O 8.975218931616578 17.009065751678317 4.938
H 6.851388677927102 16.598181225913113 5.7573
X 8.160183127016818 16.814612783023914 5.217867065853743
O 19.624027296165742 10.589505530427386 5.6037
C 18.643823560227492 9.736176147332737 5.2636
O 18.85791715181278 8.595703971415185 4.9772
H 20.473041100105867 10.034750764139506 5.7965
X 19.725996405344468 10.200624980087323 5.253312159421588
O 18.211260496083476 7.203228004742632 5.7171
C 16.932506494941304 6.971368986020292 5.377000000000001
O 16.533106309956896 5.881877204392537 5.0906
H 18.657033661083034 6.292259522649931 5.9099
X 17.350634520876632 6.077936996817827 5.460595078806041
0 2 A
0 11 S
0 6 A
1 14 S
1 7 A
1 3 A
2 15 S
2 8 A
3 9 A
4 10 A
4 6 A
4 16 S
5 7 A
5 13 S
5 11 A
6 17 S
8 10 A
8 18 S
9 12 S
9 11 A
19 23 A
19 20 A
20 22 S
20 24 A
21 23 A
21 26 A
23 25 S
24 26 A
26 27 S
10 19 S
28 29 S
29 30 A
28 31 S
3 29 S
32 31 S
33 34 S
34 35 A
33 36 S
7 34 S
37 36 S
38 39 S
39 40 A
38 41 S
21 39 S
42 41 S
43 44 S
44 45 A
43 46 S
24 44 S
47 46 S
