54
mol to xyz file
C 34.9913 1.6805 53.5515
C 34.9913 1.6805 55.9399
C 34.9913 1.6805 51.1631
C 34.2837 1.6805 54.7456
C 32.8739 1.6805 54.7456
C 34.2837 1.6805 52.3574
C 32.8739 1.6805 52.3574
C 30.6712 1.6805 53.5515
C 29.9153 1.6805 54.7456
C 28.5131 1.6805 54.7456
C 29.9153 1.6805 52.3574
C 28.5131 1.6805 52.3574
C 27.7874 1.6805 53.5515
O 32.2799 1.6805 55.8466
O 32.2799 1.6805 51.2564
N 32.1566 1.6805 53.5515
H 34.4478 1.6805 56.8813
H 30.4200 1.6805 55.7084
H 27.9696 1.6805 55.6870
H 34.4478 1.6805 50.2217
H 30.4200 1.6805 51.3946
H 27.9696 1.6805 51.4160
C 36.4107 1.6805 53.5515
C 36.4107 1.6805 51.1631
C 36.4107 1.6805 55.9399
C 37.1183 1.6805 52.3574
C 38.5281 1.6805 52.3574
C 37.1183 1.6805 54.7456
C 38.5281 1.6805 54.7456
C 40.7308 1.6805 53.5515
C 41.4867 1.6805 52.3574
C 42.8889 1.6805 52.3574
C 41.4867 1.6805 54.7456
C 42.8889 1.6805 54.7456
C 43.6146 1.6805 53.5515
O 39.1221 1.6805 51.2564
O 39.1221 1.6805 55.8466
N 39.2454 1.6805 53.5515
H 36.9542 1.6805 50.2217
H 40.9820 1.6805 51.3946
H 43.4324 1.6805 51.4160
H 36.9542 1.6805 56.8813
H 40.9820 1.6805 55.7084
H 43.4324 1.6805 55.6870
O 25.945343661464822 0.808004008225618 53.8788
C 26.68511519883379 1.8765115994474844 53.5387
O 26.196658995660393 2.9290909967289593 53.2523
H 24.985830132822553 1.1365022248911945 54.0716
X 25.5374 1.6805 53.5515
O 45.45665633853518 2.5529959917743823 53.8788
C 44.716884801166216 1.484488400552516 53.5387
O 45.205341004339616 0.4319090032710413 53.2523
H 46.41616986717745 2.224497775108806 54.0716
X 45.8646 1.6805 53.5515
0 3 A
0 22 A
0 5 A
1 24 A
1 16 S
1 3 A
2 19 S
2 23 A
2 5 A
3 4 S
4 15 S
4 13 D
5 6 S
6 15 S
6 14 D
7 8 A
7 15 S
7 10 A
8 9 A
8 17 S
9 12 A
9 18 S
10 11 A
10 20 S
11 21 S
11 12 A
22 27 A
22 25 A
23 38 S
23 25 A
24 41 S
24 27 A
25 26 S
26 37 S
26 35 D
27 28 S
28 37 S
28 36 D
29 37 S
29 32 A
29 30 A
30 39 S
30 31 A
31 40 S
31 34 A
32 33 A
32 42 S
33 34 A
33 43 S
44 45 S
45 46 A
44 47 S
12 45 S
48 47 S
49 50 S
50 51 A
49 52 S
34 50 S
53 52 S
