55
Properties=species:S:1:pos:R:3 mol=T to=T xyz=T file=T pbc="F F F"
C 34.99130000 1.68050000 53.55150000
C 34.99130000 1.68050000 55.93990000
C 34.99130000 1.68050000 51.16310000
C 34.28370000 1.68050000 54.74560000
C 32.87390000 1.68050000 54.74560000
C 34.28370000 1.68050000 52.35740000
C 32.87390000 1.68050000 52.35740000
C 30.67120000 1.68050000 53.55150000
C 29.91530000 1.68050000 54.74560000
C 28.51310000 1.68050000 54.74560000
C 29.91530000 1.68050000 52.35740000
C 28.51310000 1.68050000 52.35740000
C 27.78740000 1.68050000 53.55150000
O 32.27990000 1.68050000 55.84660000
O 32.27990000 1.68050000 51.25640000
N 32.15660000 1.68050000 53.55150000
C 34.22136021 1.68050000 57.27351789
H 30.42000000 1.68050000 55.70840000
H 27.96960000 1.68050000 55.68700000
H 34.44780000 1.68050000 50.22170000
H 30.42000000 1.68050000 51.39460000
H 27.96960000 1.68050000 51.41600000
C 36.41070000 1.68050000 53.55150000
C 36.41070000 1.68050000 51.16310000
C 36.41070000 1.68050000 55.93990000
C 37.11830000 1.68050000 52.35740000
C 38.52810000 1.68050000 52.35740000
C 37.11830000 1.68050000 54.74560000
C 38.52810000 1.68050000 54.74560000
C 40.73080000 1.68050000 53.55150000
C 41.48670000 1.68050000 52.35740000
C 42.88890000 1.68050000 52.35740000
C 41.48670000 1.68050000 54.74560000
C 42.88890000 1.68050000 54.74560000
C 43.61460000 1.68050000 53.55150000
O 39.12210000 1.68050000 51.25640000
O 39.12210000 1.68050000 55.84660000
N 39.24540000 1.68050000 53.55150000
H 36.95420000 1.68050000 50.22170000
H 40.98200000 1.68050000 51.39460000
H 43.43240000 1.68050000 51.41600000
H 36.95420000 1.68050000 56.88130000
H 40.98200000 1.68050000 55.70840000
H 43.43240000 1.68050000 55.68700000
N 33.46698783 1.68052708 58.58182797
O 25.945343661464822 0.808004008225618 53.8788
C 26.68511519883379 1.8765115994474844 53.5387
O 26.196658995660393 2.9290909967289593 53.2523
H 24.985830132822553 1.1365022248911945 54.0716
X 25.5374 1.6805 53.5515
O 45.45665633853518 2.5529959917743823 53.8788
C 44.716884801166216 1.484488400552516 53.5387
O 45.205341004339616 0.4319090032710413 53.2523
H 46.41616986717745 2.224497775108806 54.0716
X 45.8646 1.6805 53.5515
0 3 A
0 22 A
0 5 A
3 1 A
3 4 S
22 27 A
22 25 A
5 2 A
5 6 S
1 24 A
1 16 S
24 41 S
24 27 A
16 44 T
2 19 S
2 23 A
23 38 S
23 25 A
4 15 S
4 13 D
15 6 S
15 7 S
6 14 D
7 8 A
7 10 A
8 9 A
8 17 S
10 11 A
10 20 S
9 12 A
9 18 S
12 11 A
11 21 S
27 28 S
25 26 S
26 37 S
26 35 D
37 28 S
37 29 S
28 36 D
29 32 A
29 30 A
32 33 A
32 42 S
30 39 S
30 31 A
31 40 S
31 34 A
34 33 A
33 43 S
45 46 S
46 47 A
45 48 S
12 46 S
49 48 S
50 51 S
51 52 A
50 53 S
34 51 S
54 53 S
