52
mol to xyz file
C 34.9913 1.6805 53.5515
C 34.9913 1.6805 55.9399
C 34.9913 1.6805 51.1631
C 34.2837 1.6805 54.7456
C 32.8739 1.6805 54.7456
C 34.2837 1.6805 52.3574
C 32.8739 1.6805 52.3574
C 30.6712 1.6805 53.5515
C 29.9153 1.6805 54.7456
C 28.5131 1.6805 54.7456
C 29.9153 1.6805 52.3574
C 28.5131 1.6805 52.3574
C 27.7874 1.6805 53.5515
O 32.2799 1.6805 55.8466
O 32.2799 1.6805 51.2564
N 32.1566 1.6805 53.5515
H 34.4478 1.6805 56.8813
H 30.4200 1.6805 55.7084
H 27.9696 1.6805 55.6870
H 34.4478 1.6805 50.2217
H 30.4200 1.6805 51.3946
H 27.9696 1.6805 51.4160
C 36.4107 1.6805 53.5515
C 36.4107 1.6805 51.1631
C 36.4107 1.6805 55.9399
C 37.1183 1.6805 52.3574
C 38.5281 1.6805 52.3574
C 37.1183 1.6805 54.7456
C 38.5281 1.6805 54.7456
C 40.7308 1.6805 53.5515
C 41.4867 1.6805 52.3574
C 42.8889 1.6805 52.3574
C 41.4867 1.6805 54.7456
C 42.8889 1.6805 54.7456
C 43.6146 1.6805 53.5515
O 39.1221 1.6805 51.2564
O 39.1221 1.6805 55.8466
N 39.2454 1.6805 53.5515
H 36.9542 1.6805 50.2217
H 40.9820 1.6805 51.3946
H 43.4324 1.6805 51.4160
H 36.9542 1.6805 56.8813
H 40.9820 1.6805 55.7084
H 43.4324 1.6805 55.6870
N 26.804215542802233 1.3833515133393206 53.56779999999999
H 26.429699281119213 1.6082881038153338 52.638099999999994
H 26.33133749812739 2.0206182744876595 54.22019999999999
X 25.5374 1.6805 53.5515
N 44.597784457197776 1.9776484866606778 53.56779999999999
H 44.972300718880796 1.7527118961846648 52.638099999999994
H 45.07066250187262 1.340381725512339 54.22019999999999
X 45.8646 1.6805 53.5515
0 3 A
0 22 A
0 5 A
1 24 A
1 16 S
1 3 A
2 19 S
2 23 A
2 5 A
3 4 S
4 15 S
4 13 D
5 6 S
6 15 S
6 14 D
7 8 A
7 15 S
7 10 A
8 9 A
8 17 S
9 12 A
9 18 S
10 11 A
10 20 S
11 21 S
11 12 A
22 27 A
22 25 A
23 38 S
23 25 A
24 41 S
24 27 A
25 26 S
26 37 S
26 35 D
27 28 S
28 37 S
28 36 D
29 37 S
29 32 A
29 30 A
30 39 S
30 31 A
31 40 S
31 34 A
32 33 A
32 42 S
33 34 A
33 43 S
44 45 S
44 46 S
12 45 S
47 46 S
48 49 S
48 50 S
34 49 S
51 50 S
