51
Properties=species:S:1:pos:R:3 mol=T to=T xyz=T file=T pbc="F F F"
H 6.17230000 7.23930000 0.41110000
H 7.58990000 9.03090000 0.93450000
C 9.42952402 18.18346128 -1.41916589
H 7.39850000 16.92980000 -0.93450000
H 10.08910000 17.19680000 0.41110000
H 7.39620000 16.94210000 0.93080000
H 5.44580000 8.10940000 -1.06560000
H 7.59770000 9.04070000 -0.93080000
H 8.90620000 18.61360000 0.65440000
H 9.89470000 13.51710000 0.00000000
H 3.84880000 13.54070000 0.00000000
C 7.10600000 11.65370000 0.00000000
C 6.21120000 12.66880000 0.00000000
C 5.40780000 14.97410000 0.00000000
C 6.52150000 14.00580000 0.00000000
C 1.93200000 15.29340000 0.00000000
C 8.03230000 16.77320000 0.00000000
O 8.55390000 15.50630000 0.00000000
C 9.16090000 17.71560000 0.00000000
N 4.12480000 14.61590000 0.00000000
N 3.15660000 15.57120000 0.00000000
O 5.62070000 16.12160000 0.00000000
H 4.98940000 8.65600000 0.65440000
H 5.09370000 12.44350000 0.00000000
H 11.13960000 12.41990000 0.00000000
C 7.88240000 14.30690000 0.00000000
C 8.77720000 13.29190000 0.00000000
C 9.58060000 10.98660000 0.00000000
C 8.46690000 11.95490000 0.00000000
C 13.05640000 10.66720000 0.00000000
C 6.95610000 9.18750000 0.00000000
O 6.43450000 10.45440000 0.00000000
C 5.82750000 8.24510000 0.00000000
N 10.86360000 11.34480000 0.00000000
N 11.83180000 10.38950000 0.00000000
O 9.36770000 9.83910000 0.00000000
H 1.53250000 14.47800000 -0.68930000
H 13.45590000 11.48260000 0.68930000
O 10.38298799 17.59855961 -2.13382425
O 8.78733674 19.12380042 -1.88827082
H 10.54234209 18.15768505 -2.96497551
O 15.092055549092162 10.769802609373688 0.32730000000000004
C 14.00019596282258 10.064952948899045 -0.012799999999999999
O 14.049489399812975 8.905607009556661 -0.29919999999999997
H 15.853295798878 10.099660406474934 0.5201
X 14.91000698770986 9.720717670414393 -0.4535
O -0.10365398208432985 15.190766305609655 0.32730000000000004
C 0.9881948408068301 15.895632639002866 -0.012799999999999999
O 0.938883700285985 17.054977825485533 -0.29919999999999997
H -0.8649044650399653 15.860896884079114 0.5201
X 0.07838418395655378 16.239961100517654 0.4535
0 32 S
32 6 S
32 22 S
32 30 S
1 30 S
30 7 S
30 31 S
2 18 S
2 38 S
2 39 D
18 4 S
18 8 S
18 16 S
3 16 S
16 5 S
16 17 S
9 26 S
26 25 A
26 28 A
10 19 S
19 13 S
19 20 S
11 28 A
11 12 A
11 31 S
28 27 S
12 14 A
12 23 S
14 13 S
14 25 A
13 21 D
25 17 S
15 20 D
15 36 S
24 33 S
33 27 S
33 34 S
27 35 D
29 34 D
29 37 S
38 40 S
41 42 S
42 43 A
41 44 S
29 42 S
45 44 S
46 47 S
47 48 A
46 49 S
15 47 S
50 49 S
