54
mol to xyz file
C 5.0386 27.6849 5.2146
C 3.8425 26.9779 5.2146
H 5.9732 27.1385 5.2146
H 3.8725 25.8963 5.2146
C -3.7620 29.8960 5.2146
C -2.5517 29.2136 5.2146
H -3.7562 30.9786 5.2146
H -1.6300 29.7804 5.2146
C -1.2766 21.1689 5.2146
C -1.2908 22.5583 5.2146
H -2.2170 20.6326 5.2146
H -2.2425 23.0731 5.2146
C 1.2766 21.1689 5.2146
C 1.2908 22.5583 5.2146
H 2.2170 20.6326 5.2146
H 2.2425 23.0731 5.2146
C -5.0386 27.6849 5.2146
C -3.8425 26.9779 5.2146
H -5.9732 27.1385 5.2146
H -3.8725 25.8963 5.2146
C 3.7620 29.8960 5.2146
C 2.5517 29.2136 5.2146
H 3.7562 30.9786 5.2146
H 1.6300 29.7804 5.2146
C 0.0000 24.8424 5.2146
C 0.0000 20.4310 5.2146
C 0.0000 23.3345 5.2146
C 1.2189 26.9537 5.2146
C 5.0393 29.1594 5.2146
C 2.5248 27.7076 5.2146
C -1.2189 26.9537 5.2146
C -5.0393 29.1594 5.2146
C -2.5248 27.7076 5.2146
C -1.2055 25.5539 5.2146
C 1.2055 25.5539 5.2146
C 0.0000 27.6420 5.2146
H 2.1477 25.0219 5.2146
H -0.0104 28.7239 5.2146
H -2.1373 25.0040 5.2146
O 0.8829096979724889 18.593912284286315 5.5419
C -0.18976854102800378 19.327623259790155 5.2018
O -1.2395659739125937 18.833216342454925 4.9154
H 0.5598484494779957 17.6325545362439 5.7347
X 0.0 18.181 5.2146
O 6.238475868138039 30.807549886167937 5.5419
C 6.100816831720464 29.515257198851096 5.2018
O 7.033727535827125 28.825191645325045 4.9154
H 7.238113934978753 30.97872530882832 5.7347
X 6.987835264303538 30.28440492138108 5.2146
O -7.071233942449889 29.31960381868123 5.5419
C -5.897750394719917 29.878089953878042 5.2018
O -5.797446391285392 31.03414010715644 4.9154
H -7.739909500067249 30.082132695934487 5.7347
X -6.987835264303538 30.28440492138108 5.2146
0 1 A
0 2 S
0 28 A
1 29 A
1 3 S
4 31 A
4 5 A
4 6 S
5 7 S
5 32 A
8 25 A
8 10 S
8 9 A
9 26 A
9 11 S
12 25 A
12 14 S
12 13 A
13 26 A
13 15 S
16 17 A
16 18 S
16 31 A
17 32 A
17 19 S
20 28 A
20 21 A
20 22 S
21 23 S
21 29 A
24 33 A
24 34 A
24 26 S
27 35 A
27 29 S
27 34 A
30 35 A
30 32 S
30 33 A
33 38 S
34 36 S
35 37 S
39 40 S
40 41 A
39 42 S
40 25 S
43 42 S
44 45 S
45 46 A
44 47 S
45 28 S
48 47 S
49 50 S
50 51 A
49 52 S
50 31 S
53 52 S
