54
Properties=species:S:1:pos:R:3 mol=T to=T xyz=T file=T pbc="F F F"
C 5.03860000 27.68490000 5.21460000
C 3.84250000 26.97790000 5.21460000
H 5.97320000 27.13850000 5.21460000
H 3.87250000 25.89630000 5.21460000
C -3.76200000 29.89600000 5.21460000
C -2.55170000 29.21360000 5.21460000
F -3.75473628 31.25181066 5.21460000
H -1.63000000 29.78040000 5.21460000
C -1.27660000 21.16890000 5.21460000
C -1.29080000 22.55830000 5.21460000
H -2.21700000 20.63260000 5.21460000
H -2.24250000 23.07310000 5.21460000
C 1.27660000 21.16890000 5.21460000
C 1.29080000 22.55830000 5.21460000
H 2.21700000 20.63260000 5.21460000
H 2.24250000 23.07310000 5.21460000
C -5.03860000 27.68490000 5.21460000
C -3.84250000 26.97790000 5.21460000
H -5.97320000 27.13850000 5.21460000
H -3.87250000 25.89630000 5.21460000
C 3.76200000 29.89600000 5.21460000
C 2.55170000 29.21360000 5.21460000
H 3.75620000 30.97860000 5.21460000
H 1.63000000 29.78040000 5.21460000
C 0.00000000 24.84240000 5.21460000
C 0.00000000 20.43100000 5.21460000
C 0.00000000 23.33450000 5.21460000
C 1.21890000 26.95370000 5.21460000
C 5.03930000 29.15940000 5.21460000
C 2.52480000 27.70760000 5.21460000
C -1.21890000 26.95370000 5.21460000
C -5.03930000 29.15940000 5.21460000
C -2.52480000 27.70760000 5.21460000
C -1.20550000 25.55390000 5.21460000
C 1.20550000 25.55390000 5.21460000
C 0.00000000 27.64200000 5.21460000
H 2.14770000 25.02190000 5.21460000
H -0.01040000 28.72390000 5.21460000
H -2.13730000 25.00400000 5.21460000
O 0.8829096979724889 18.593912284286315 5.5419
C -0.18976854102800378 19.327623259790155 5.2018
O -1.2395659739125937 18.833216342454925 4.9154
H 0.5598484494779957 17.6325545362439 5.7347
X 0.0 18.181 5.2146
O 6.238475868138039 30.807549886167937 5.5419
C 6.100816831720464 29.515257198851096 5.2018
O 7.033727535827125 28.825191645325045 4.9154
H 7.238113934978753 30.97872530882832 5.7347
X 6.987835264303538 30.28440492138108 5.2146
O -7.071233942449889 29.31960381868123 5.5419
C -5.897750394719917 29.878089953878042 5.2018
O -5.797446391285392 31.03414010715644 4.9154
H -7.739909500067249 30.082132695934487 5.7347
X -6.987835264303538 30.28440492138108 5.2146
31 4 A
31 16 A
0 1 A
0 2 S
0 28 A
1 29 A
1 3 S
28 20 A
29 21 A
29 27 S
4 5 A
4 6 S
5 7 S
5 32 A
32 17 A
32 30 S
8 25 A
8 10 S
8 9 A
25 12 A
9 26 A
9 11 S
26 13 A
26 24 S
12 14 S
12 13 A
13 15 S
16 17 A
16 18 S
17 19 S
20 21 A
20 22 S
21 23 S
24 33 A
24 34 A
33 30 A
33 38 S
34 27 A
34 36 S
27 35 A
35 30 A
35 37 S
39 40 S
40 41 A
39 42 S
25 40 S
43 42 S
44 45 S
45 46 A
44 47 S
28 45 S
48 47 S
49 50 S
50 51 A
49 52 S
50 31 S
53 52 S
