54
Properties=species:S:1:pos:R:3 mol=T to=T xyz=T file=T pbc="F F F"
C 5.03860000 27.68490000 5.21460000
C 3.84250000 26.97790000 5.21460000
C 6.33379423 26.92768394 5.21460000
H 3.87250000 25.89630000 5.21460000
C -3.76200000 29.89600000 5.21460000
C -2.55170000 29.21360000 5.21460000
H -3.75620000 30.97860000 5.21460000
H -1.63000000 29.78040000 5.21460000
C -1.27660000 21.16890000 5.21460000
C -1.29080000 22.55830000 5.21460000
H -2.21700000 20.63260000 5.21460000
H -2.24250000 23.07310000 5.21460000
C 1.27660000 21.16890000 5.21460000
C 1.29080000 22.55830000 5.21460000
H 2.21700000 20.63260000 5.21460000
H 2.24250000 23.07310000 5.21460000
C -5.03860000 27.68490000 5.21460000
C -3.84250000 26.97790000 5.21460000
H -5.97320000 27.13850000 5.21460000
H -3.87250000 25.89630000 5.21460000
C 3.76200000 29.89600000 5.21460000
C 2.55170000 29.21360000 5.21460000
H 3.75620000 30.97860000 5.21460000
H 1.63000000 29.78040000 5.21460000
C 0.00000000 24.84240000 5.21460000
C 0.00000000 20.43100000 5.21460000
C 0.00000000 23.33450000 5.21460000
C 1.21890000 26.95370000 5.21460000
C 5.03930000 29.15940000 5.21460000
C 2.52480000 27.70760000 5.21460000
C -1.21890000 26.95370000 5.21460000
C -5.03930000 29.15940000 5.21460000
C -2.52480000 27.70760000 5.21460000
C -1.20550000 25.55390000 5.21460000
C 1.20550000 25.55390000 5.21460000
C 0.00000000 27.64200000 5.21460000
H 2.14770000 25.02190000 5.21460000
H -0.01040000 28.72390000 5.21460000
H -2.13730000 25.00400000 5.21460000
F 6.56045747 26.40585955 6.47443349
F 7.39344872 27.74915821 4.87383647
F 6.25994845 25.89209838 4.30172339
N 0.28915823153245385 19.445435990340037 5.2309
H 0.06118911868656048 19.07275786703756 4.3012
H -0.35192586695875977 18.977746190727398 5.8833
X 0.0 18.181 5.2146
N 5.7464929640100575 29.904267110063714 5.2309
H 6.183251132793201 29.8942071895274 4.3012
H 6.472820679593964 29.58462571791516 5.8833
X 6.987835264303538 30.28440492138108 5.2146
N -6.036073107201313 29.407174641075798 5.2309
H -6.242752319856904 29.792067617182227 4.3012
H -6.116280622764634 30.196661388556183 5.8833
X -6.987835264303538 30.28440492138108 5.2146
31 4 A
31 16 A
0 1 A
0 2 S
0 28 A
1 29 A
1 3 S
2 39 S
2 40 S
2 41 S
28 20 A
29 21 A
29 27 S
4 5 A
4 6 S
5 7 S
5 32 A
32 17 A
32 30 S
8 25 A
8 10 S
8 9 A
25 12 A
9 26 A
9 11 S
26 13 A
26 24 S
12 14 S
12 13 A
13 15 S
16 17 A
16 18 S
17 19 S
20 21 A
20 22 S
21 23 S
24 33 A
24 34 A
33 30 A
33 38 S
34 27 A
34 36 S
27 35 A
35 30 A
35 37 S
42 43 S
42 44 S
25 43 S
45 44 S
46 47 S
46 48 S
28 47 S
49 48 S
50 51 S
50 52 S
51 31 S
53 52 S
