67
Properties=species:S:1:pos:R:3 mol=T to=T xyz=T file=T pbc="F F F"
N 15.98920000 10.54800000 3.29270000
H 16.10420000 9.44400000 3.29270000
N 15.98920000 6.31420000 3.29270000
H 16.10420000 7.41820000 3.29270000
C 14.92200000 11.32180000 3.29270000
C 15.33100000 12.57730000 3.29270000
C 17.05630000 11.32180000 3.29270000
C 16.64730000 12.57730000 3.29270000
C 17.05630000 5.54040000 3.29270000
C 16.64730000 4.28490000 3.29270000
C 14.92200000 5.54040000 3.29270000
C 15.33100000 4.28490000 3.29270000
H 14.56890000 13.42510000 3.29270000
H 17.21730000 13.56460000 3.29270000
H 17.40940000 3.43710000 3.29270000
H 14.76100000 3.29760000 3.29270000
N 13.87280000 8.43110000 3.29270000
N 18.10550000 8.43110000 3.29270000
C 13.09800000 9.49950000 3.29270000
C 11.84640000 9.09110000 3.29270000
C 18.88030000 9.49950000 3.29270000
C 20.13190000 9.09110000 3.29270000
C 18.88030000 7.36270000 3.29270000
C 20.13190000 7.77110000 3.29270000
C 13.09800000 7.36270000 3.29270000
C 11.84640000 7.77110000 3.29270000
H 10.99820000 9.85290000 3.29270000
C 13.54890000 10.87160000 3.29270000
H 20.98010000 9.85290000 3.29270000
C 18.42940000 10.87160000 3.29270000
C 19.39860000 11.84110000 3.29270000
H 21.11920000 7.20110000 3.29270000
C 18.42940000 5.99060000 3.29270000
H 10.85910000 7.20110000 3.29270000
C 13.54890000 5.99060000 3.29270000
C 12.57970000 5.02110000 3.29270000
C 19.88310000 12.32510000 2.10510000
H 19.48010000 11.92120000 1.11810000
C 20.85240000 13.29500000 2.10510000
H 21.25580000 13.69770000 1.11780000
C 12.09520000 4.53710000 2.10510000
H 12.49820000 4.94100000 1.11810000
C 11.12590000 3.56720000 2.10510000
C 10.58099817 3.02324371 0.77148180
C 12.09520000 4.53710000 4.48040000
H 12.49820000 4.94100000 5.46730000
C 11.12590000 3.56720000 4.48040000
H 10.72250000 3.16450000 5.46760000
C 19.88310000 12.32510000 4.48040000
H 19.48010000 11.92120000 5.46730000
C 20.85240000 13.29500000 4.48040000
H 21.25580000 13.69770000 5.46760000
C 21.33500000 13.77890000 3.29270000
C 10.64330000 3.08330000 3.29270000
H 12.69970000 11.63210000 3.29270000
H 19.27860000 5.23010000 3.29270000
N 10.04708793 2.49031106 -0.53682841
O 9.992378111767064 1.1517924267766197 3.6199999999999997
C 9.736949221263178 2.4260476923713727 3.2798999999999996
O 8.640269096031487 2.8052647185210464 2.9935
H 9.089795131690309 0.6892762064386058 3.8127999999999997
X 9.053333269736505 1.49134644441892 3.29358179084649
O 21.986132631576655 15.710336539494909 3.6199999999999997
C 22.241422486286346 14.43605341158247 3.2798999999999996
O 23.338061228536468 14.056716728679168 2.9935
H 22.888766071527826 16.17275427605128 3.8127999999999997
X 22.924966730263495 15.37085355558108 3.29358179084649
0 1 S
0 6 A
0 4 A
6 29 A
6 7 A
4 27 A
4 5 A
2 8 A
2 10 A
2 3 S
8 32 A
8 9 A
10 34 A
10 11 A
27 18 A
27 54 S
5 12 S
5 7 A
7 13 S
29 20 A
29 30 S
32 22 A
32 55 S
9 11 A
9 14 S
11 15 S
34 24 A
34 35 S
16 24 A
16 18 A
24 25 S
18 19 S
17 22 A
17 20 A
22 23 S
20 21 S
19 26 S
19 25 D
25 33 S
21 28 S
21 23 D
23 31 S
30 36 A
30 48 A
36 37 S
36 38 A
48 49 S
48 50 A
35 40 A
35 44 A
40 42 A
40 41 S
44 46 A
44 45 S
38 52 A
38 39 S
52 50 A
42 53 A
42 43 S
53 46 A
43 56 T
46 47 S
50 51 S
57 58 S
58 59 A
57 60 S
53 58 S
61 60 S
62 63 S
63 64 A
62 65 S
52 63 S
66 65 S
