60
mol to xyz file
N 15.9892 10.5480 3.2927
H 16.1042 9.4440 3.2927
N 15.9892 6.3142 3.2927
H 16.1042 7.4182 3.2927
C 14.9220 11.3218 3.2927
C 15.3310 12.5773 3.2927
C 17.0563 11.3218 3.2927
C 16.6473 12.5773 3.2927
C 17.0563 5.5404 3.2927
C 16.6473 4.2849 3.2927
C 14.9220 5.5404 3.2927
C 15.3310 4.2849 3.2927
H 14.5689 13.4251 3.2927
H 17.2173 13.5646 3.2927
H 17.4094 3.4371 3.2927
H 14.7610 3.2976 3.2927
N 13.8728 8.4311 3.2927
N 18.1055 8.4311 3.2927
C 13.0980 9.4995 3.2927
C 11.8464 9.0911 3.2927
C 18.8803 9.4995 3.2927
C 20.1319 9.0911 3.2927
C 18.8803 7.3627 3.2927
C 20.1319 7.7711 3.2927
C 13.0980 7.3627 3.2927
C 11.8464 7.7711 3.2927
H 10.9982 9.8529 3.2927
C 13.5489 10.8716 3.2927
H 20.9801 9.8529 3.2927
C 18.4294 10.8716 3.2927
C 19.3986 11.8411 3.2927
H 21.1192 7.2011 3.2927
C 18.4294 5.9906 3.2927
H 10.8591 7.2011 3.2927
C 13.5489 5.9906 3.2927
C 12.5797 5.0211 3.2927
C 19.8831 12.3251 2.1051
H 19.4801 11.9212 1.1181
C 20.8524 13.2950 2.1051
H 21.2558 13.6977 1.1178
C 12.0952 4.5371 2.1051
H 12.4982 4.9410 1.1181
C 11.1259 3.5672 2.1051
H 10.7225 3.1645 1.1178
C 12.0952 4.5371 4.4804
H 12.4982 4.9410 5.4673
C 11.1259 3.5672 4.4804
H 10.7225 3.1645 5.4676
C 19.8831 12.3251 4.4804
H 19.4801 11.9212 5.4673
C 20.8524 13.2950 4.4804
H 21.2558 13.6977 5.4676
C 21.3350 13.7789 3.2927
C 10.6433 3.0833 3.2927
H 12.6997 11.6321 3.2927
H 19.2786 5.2301 3.2927
F 9.625283810958713 2.064912446634457 3.2927
X 9.053333269736505 1.49134644441892 3.29358179084649
F 22.353016189041288 14.79728755336554 3.2927
X 22.924966730263495 15.37085355558108 3.29358179084649
0 1 S
0 6 A
0 4 A
2 8 A
2 10 A
2 3 S
4 27 A
4 5 A
5 12 S
5 7 A
6 29 A
6 7 A
7 13 S
8 32 A
8 9 A
9 11 A
9 14 S
10 34 A
10 11 A
11 15 S
16 24 A
16 18 A
17 22 A
17 20 A
18 19 S
18 27 A
19 26 S
19 25 D
20 21 S
20 29 A
21 28 S
21 23 D
22 23 S
22 32 A
23 31 S
24 25 S
24 34 A
25 33 S
27 54 S
29 30 S
30 36 A
30 48 A
32 55 S
34 35 S
35 40 A
35 44 A
36 37 S
36 38 A
38 52 A
38 39 S
40 42 A
40 41 S
42 53 A
42 43 S
44 46 A
44 45 S
46 47 S
46 53 A
48 49 S
48 50 A
50 51 S
50 52 A
57 56 S
59 58 S
