90
mol to xyz file
N 15.6691 10.8677 3.2906
H 15.7841 9.7637 3.2906
N 15.6691 6.6340 3.2906
H 15.7841 7.7380 3.2906
C 14.6020 11.6416 3.2906
C 15.0110 12.8971 3.2906
C 16.7362 11.6416 3.2906
C 16.3272 12.8971 3.2906
C 16.7362 5.8602 3.2906
C 16.3272 4.6046 3.2906
C 14.6020 5.8602 3.2906
C 15.0110 4.6046 3.2906
H 14.2488 13.7449 3.2906
H 16.8972 13.8844 3.2906
H 17.0894 3.7569 3.2906
H 14.4410 3.6173 3.2906
N 13.5528 8.7509 3.2906
N 17.7854 8.7509 3.2906
C 12.7780 9.8193 3.2906
C 11.5263 9.4109 3.2906
C 18.5602 9.8193 3.2906
C 19.8119 9.4109 3.2906
C 18.5602 7.6825 3.2906
C 19.8119 8.0909 3.2906
C 12.7780 7.6825 3.2906
C 11.5263 8.0909 3.2906
H 10.6782 10.1726 3.2906
C 13.2288 11.1913 3.2906
C 12.2596 12.1609 3.2906
H 20.6600 10.1726 3.2906
C 18.1094 11.1913 3.2906
C 19.0786 12.1609 3.2906
H 20.7992 7.5209 3.2906
C 18.1094 6.3104 3.2906
C 19.0786 5.3408 3.2906
H 10.5390 7.5209 3.2906
C 13.2288 6.3104 3.2906
C 12.2596 5.3408 3.2906
C 11.7752 12.6449 4.4783
H 12.1782 12.2409 5.4652
C 10.8058 13.6148 4.4783
H 10.4025 14.0175 5.4655
C 19.5630 12.6449 2.1030
H 19.1600 12.2409 1.1160
C 20.5324 13.6148 2.1030
H 20.9357 14.0175 1.1157
C 19.5630 4.8569 4.4783
H 19.1600 5.2608 5.4652
C 20.5324 3.8870 4.4783
H 20.9357 3.4842 5.4655
C 11.7752 4.8569 2.1030
H 12.1782 5.2608 1.1160
C 10.8058 3.8870 2.1030
H 10.4025 3.4842 1.1157
C 19.5630 4.8569 2.1030
H 19.1600 5.2608 1.1160
C 20.5324 3.8870 2.1030
H 20.9357 3.4842 1.1157
C 11.7752 4.8569 4.4783
H 12.1782 5.2608 5.4652
C 10.8058 3.8870 4.4783
H 10.4025 3.4842 5.4655
C 11.7752 12.6449 2.1030
H 12.1782 12.2409 1.1160
C 10.8058 13.6148 2.1030
H 10.4025 14.0175 1.1157
C 19.5630 12.6449 4.4783
H 19.1600 12.2409 5.4652
C 20.5324 13.6148 4.4783
H 20.9357 14.0175 5.4655
C 10.3233 14.0987 3.2906
C 21.0149 14.0987 3.2906
C 21.0149 3.4030 3.2906
C 10.3233 3.4030 3.2906
N 9.423244761787082 14.593522663350706 3.3069
H 9.32204710460375 15.018514350540707 2.3772
H 9.547932473809746 15.377216190483956 3.9593000000000003
X 8.732243178968215 15.689663483548737 3.2906
N 21.505768637424207 15.000917756859897 3.3069
H 21.930312198357164 15.103979218475594 2.3772
H 22.290001725143973 14.879669935743282 3.9593000000000003
X 22.605956821031786 15.689663483548737 3.2906
N 21.91495523821292 2.9081773366492927 3.3069
H 22.01615289539625 2.483185649459292 2.3772
H 21.790267526190252 2.124483809516045 3.9593000000000003
X 22.605956821031786 1.812036516451264 3.2906
N 9.832431362575791 2.5007822431401054 3.3069
H 9.407887801642833 2.397720781524406 2.3772
H 9.048198274856027 2.622030064256717 3.9593000000000003
X 8.732243178968215 1.812036516451264 3.2906
0 1 S
0 6 A
0 4 A
2 8 A
2 10 A
2 3 S
4 27 A
4 5 A
5 12 S
5 7 A
6 30 A
6 7 A
7 13 S
8 33 A
8 9 A
9 11 A
9 14 S
10 36 A
10 11 A
11 15 S
16 24 A
16 18 A
17 22 A
17 20 A
18 19 S
18 27 A
19 26 S
19 25 D
20 21 S
20 30 A
21 29 S
21 23 D
22 23 S
22 33 A
23 32 S
24 25 S
24 36 A
25 35 S
27 28 S
28 62 A
28 38 A
30 31 S
31 42 A
31 66 A
33 34 S
34 54 A
34 46 A
36 37 S
37 50 A
37 58 A
38 39 S
38 40 A
40 41 S
40 70 A
42 43 S
42 44 A
44 71 A
44 45 S
46 48 A
46 47 S
48 49 S
48 72 A
50 52 A
50 51 S
52 73 A
52 53 S
54 56 A
54 55 S
56 72 A
56 57 S
58 60 A
58 59 S
60 61 S
60 73 A
62 63 S
62 64 A
64 70 A
64 65 S
66 67 S
66 68 A
68 69 S
68 71 A
74 75 S
74 76 S
70 75 S
77 76 S
78 79 S
78 80 S
71 79 S
81 80 S
82 83 S
82 84 S
72 83 S
85 84 S
86 87 S
86 88 S
73 87 S
89 88 S
