91
Properties=species:S:1:pos:R:3 mol=T to=T xyz=T file=T pbc="F F F"
N 15.66910000 10.86770000 3.29060000
H 15.78410000 9.76370000 3.29060000
N 15.66910000 6.63400000 3.29060000
H 15.78410000 7.73800000 3.29060000
C 14.60200000 11.64160000 3.29060000
C 15.01100000 12.89710000 3.29060000
C 16.73620000 11.64160000 3.29060000
C 16.32720000 12.89710000 3.29060000
C 16.73620000 5.86020000 3.29060000
C 16.32720000 4.60460000 3.29060000
C 14.60200000 5.86020000 3.29060000
C 15.01100000 4.60460000 3.29060000
H 14.24880000 13.74490000 3.29060000
H 16.89720000 13.88440000 3.29060000
S 17.53731428 3.25874081 3.29060000
H 14.44100000 3.61730000 3.29060000
N 13.55280000 8.75090000 3.29060000
N 17.78540000 8.75090000 3.29060000
C 12.77800000 9.81930000 3.29060000
C 11.52630000 9.41090000 3.29060000
C 18.56020000 9.81930000 3.29060000
C 19.81190000 9.41090000 3.29060000
C 18.56020000 7.68250000 3.29060000
C 19.81190000 8.09090000 3.29060000
C 12.77800000 7.68250000 3.29060000
C 11.52630000 8.09090000 3.29060000
H 10.67820000 10.17260000 3.29060000
C 13.22880000 11.19130000 3.29060000
C 12.25960000 12.16090000 3.29060000
H 20.66000000 10.17260000 3.29060000
C 18.10940000 11.19130000 3.29060000
C 19.07860000 12.16090000 3.29060000
H 20.79920000 7.52090000 3.29060000
C 18.10940000 6.31040000 3.29060000
C 19.07860000 5.34080000 3.29060000
H 10.53900000 7.52090000 3.29060000
C 13.22880000 6.31040000 3.29060000
C 12.25960000 5.34080000 3.29060000
C 11.77520000 12.64490000 4.47830000
H 12.17820000 12.24090000 5.46520000
C 10.80580000 13.61480000 4.47830000
H 10.40250000 14.01750000 5.46550000
C 19.56300000 12.64490000 2.10300000
H 19.16000000 12.24090000 1.11600000
C 20.53240000 13.61480000 2.10300000
H 20.93570000 14.01750000 1.11570000
C 19.56300000 4.85690000 4.47830000
H 19.16000000 5.26080000 5.46520000
C 20.53240000 3.88700000 4.47830000
H 20.93570000 3.48420000 5.46550000
C 11.77520000 4.85690000 2.10300000
H 12.17820000 5.26080000 1.11600000
C 10.80580000 3.88700000 2.10300000
H 10.40250000 3.48420000 1.11570000
C 19.56300000 4.85690000 2.10300000
H 19.16000000 5.26080000 1.11600000
C 20.53240000 3.88700000 2.10300000
H 20.93570000 3.48420000 1.11570000
C 11.77520000 4.85690000 4.47830000
H 12.17820000 5.26080000 5.46520000
C 10.80580000 3.88700000 4.47830000
H 10.40250000 3.48420000 5.46550000
C 11.77520000 12.64490000 2.10300000
H 12.17820000 12.24090000 1.11600000
C 10.80580000 13.61480000 2.10300000
H 10.40250000 14.01750000 1.11570000
C 19.56300000 12.64490000 4.47830000
H 19.16000000 12.24090000 5.46520000
C 20.53240000 13.61480000 4.47830000
H 20.93570000 14.01750000 5.46550000
C 10.32330000 14.09870000 3.29060000
C 21.01490000 14.09870000 3.29060000
C 21.01490000 3.40300000 3.29060000
C 10.32330000 3.40300000 3.29060000
H 16.90479202 2.05883600 3.67562621
N 9.423244761787082 14.593522663350706 3.3069
H 9.32204710460375 15.018514350540707 2.3772
H 9.547932473809746 15.377216190483956 3.9593000000000003
X 8.732243178968215 15.689663483548737 3.2906
N 21.505768637424207 15.000917756859897 3.3069
H 21.930312198357164 15.103979218475594 2.3772
H 22.290001725143973 14.879669935743282 3.9593000000000003
X 22.605956821031786 15.689663483548737 3.2906
N 21.91495523821292 2.9081773366492927 3.3069
H 22.01615289539625 2.483185649459292 2.3772
H 21.790267526190252 2.124483809516045 3.9593000000000003
X 22.605956821031786 1.812036516451264 3.2906
N 9.832431362575791 2.5007822431401054 3.3069
H 9.407887801642833 2.397720781524406 2.3772
H 9.048198274856027 2.622030064256717 3.9593000000000003
X 8.732243178968215 1.812036516451264 3.2906
0 1 S
0 6 A
0 4 A
6 30 A
6 7 A
4 27 A
4 5 A
2 8 A
2 10 A
2 3 S
8 33 A
8 9 A
10 36 A
10 11 A
27 18 A
27 28 S
5 12 S
5 7 A
7 13 S
30 20 A
30 31 S
33 22 A
33 34 S
9 11 A
9 14 S
11 15 S
14 74 S
36 24 A
36 37 S
16 24 A
16 18 A
24 25 S
18 19 S
17 22 A
17 20 A
22 23 S
20 21 S
19 26 S
19 25 D
25 35 S
21 29 S
21 23 D
23 32 S
28 62 A
28 38 A
62 63 S
62 64 A
38 39 S
38 40 A
31 42 A
31 66 A
42 43 S
42 44 A
66 67 S
66 68 A
34 54 A
34 46 A
54 56 A
54 55 S
46 48 A
46 47 S
37 50 A
37 58 A
50 52 A
50 51 S
58 60 A
58 59 S
40 41 S
40 70 A
70 64 A
44 71 A
44 45 S
71 68 A
48 49 S
48 72 A
72 56 A
52 73 A
52 53 S
73 60 A
56 57 S
60 61 S
64 65 S
68 69 S
75 76 S
75 77 S
70 76 S
78 77 S
79 80 S
79 81 S
71 80 S
82 81 S
83 84 S
83 85 S
72 84 S
86 85 S
87 88 S
87 89 S
73 88 S
90 89 S
