20
mol to xyz file
C 1.3272 17.3065 5.0255
C 1.3399 15.9005 5.0255
C 3.7636 17.2994 5.0255
H 0.4086 15.3442 5.0255
C 2.5506 17.9992 5.0255
C 2.5529 15.2008 5.0255
H 2.5660 19.0839 5.0255
C 3.7764 15.8935 5.0255
H 2.5376 14.1161 5.0255
H 4.6949 17.8556 5.0255
O 5.808445184858684 15.734713424079223 5.3528
C 4.635351447357616 15.175408960449818 5.012700000000001
O 4.535853773401673 14.019289129775958 4.7263
H 6.477652417408487 14.972651110417779 5.5456
X 5.725351181156835 14.769189405677606 5.025487802395206
O -0.7047257552138837 17.46680762707524 5.3528
C 0.46878632324367897 18.02523380994475 5.012700000000001
O 0.5691493874985477 19.1812788373262 4.7263
H -1.3733623554473224 18.22937066501261 5.5456
X -0.6217053819892644 18.430856646218245 5.025487804895334
0 4 A
0 1 A
1 3 S
1 5 A
2 4 A
2 7 A
4 6 S
5 7 A
2 9 S
5 8 S
10 11 S
11 12 A
10 13 S
11 7 S
14 13 S
15 16 S
16 17 A
15 18 S
0 16 S
19 18 S
