21
Properties=species:S:1:pos:R:3 mol=T to=T xyz=T file=T pbc="F F F"
C 1.32720000 17.30650000 5.02550000
C 1.33990000 15.90050000 5.02550000
C 3.76360000 17.29940000 5.02550000
C 0.01788157 15.11080941 5.02550000
C 2.55060000 17.99920000 5.02550000
C 2.55290000 15.20080000 5.02550000
H 2.56600000 19.08390000 5.02550000
C 3.77640000 15.89350000 5.02550000
H 2.53760000 14.11610000 5.02550000
H 4.69490000 17.85560000 5.02550000
N -1.27822288 14.33565383 5.02567181
O 5.808445184858684 15.734713424079223 5.3528
C 4.635351447357616 15.175408960449818 5.012700000000001
O 4.535853773401673 14.019289129775958 4.7263
H 6.477652417408487 14.972651110417779 5.5456
X 5.725351181156835 14.769189405677606 5.025487802395206
O -0.7047257552138837 17.46680762707524 5.3528
C 0.46878632324367897 18.02523380994475 5.012700000000001
O 0.5691493874985477 19.1812788373262 4.7263
H -1.3733623554473224 18.22937066501261 5.5456
X -0.6217053819892644 18.430856646218245 5.025487804895334
7 2 A
7 5 A
0 4 A
0 1 A
4 2 A
4 6 S
1 3 S
1 5 A
3 10 T
5 8 S
2 9 S
11 12 S
12 13 A
11 14 S
12 7 S
15 14 S
16 17 S
17 18 A
16 19 S
0 17 S
20 19 S
