15
Properties=species:S:1:pos:R:3 mol=T to=T xyz=T file=T pbc="F F F"
C 1.32720000 17.30650000 5.02550000
C 1.33990000 15.90050000 5.02550000
C 3.76360000 17.29940000 5.02550000
C 0.01788157 15.11080941 5.02550000
C 2.55060000 17.99920000 5.02550000
C 2.55290000 15.20080000 5.02550000
H 2.56600000 19.08390000 5.02550000
C 3.77640000 15.89350000 5.02550000
H 2.53760000 14.11610000 5.02550000
H 4.69490000 17.85560000 5.02550000
N -1.27822288 14.33565383 5.02567181
F 5.0239300788163925 15.174376316306876 5.0255
X 5.725351181156835 14.769189405677606 5.025487802395206
F 0.08019387198262629 18.026531865049815 5.0255
X -0.6217053819892644 18.430856646218245 5.025487804895334
7 2 A
7 5 A
0 4 A
0 1 A
4 2 A
4 6 S
1 3 S
1 5 A
3 10 T
5 8 S
2 9 S
12 11 S
14 13 S
