21
Properties=species:S:1:pos:R:3 mol=T to=T xyz=T file=T pbc="F F F"
C 1.32720000 17.30650000 5.02550000
C 1.33990000 15.90050000 5.02550000
C 3.76360000 17.29940000 5.02550000
C 0.05189145 15.13112477 5.02550000
C 2.55060000 17.99920000 5.02550000
C 2.55290000 15.20080000 5.02550000
H 2.56600000 19.08390000 5.02550000
C 3.77640000 15.89350000 5.02550000
H 2.53760000 14.11610000 5.02550000
H 4.69490000 17.85560000 5.02550000
F -0.11554224 14.51627432 3.79880435
F -1.02799718 15.96359363 5.25925953
F 0.09395017 14.16580989 6.01425306
N 4.773332871828079 15.646368963768976 5.0418
H 4.980260542400457 15.261609507547963 4.1121
H 4.854050092215929 14.85693416574392 5.6942
X 5.725351181156835 14.769189405677606 5.025487802395206
N 0.3304295128918382 17.55428518121582 5.0418
H 0.12375437021233693 17.93918034278376 4.1121
H 0.2502303455837154 18.343772776788473 5.6942
X -0.6217053819892644 18.430856646218245 5.025487804895334
7 2 A
7 5 A
0 4 A
0 1 A
4 2 A
4 6 S
1 3 S
1 5 A
3 10 S
3 11 S
3 12 S
5 8 S
2 9 S
13 14 S
13 15 S
14 7 S
16 15 S
17 18 S
17 19 S
0 18 S
20 19 S
