18
mol to xyz file
C 1.3272 17.3065 5.0255
C 1.3399 15.9005 5.0255
C 3.7636 17.2994 5.0255
H 0.4086 15.3442 5.0255
C 2.5506 17.9992 5.0255
C 2.5529 15.2008 5.0255
H 2.5660 19.0839 5.0255
C 3.7764 15.8935 5.0255
H 2.5376 14.1161 5.0255
H 4.6949 17.8556 5.0255
N 4.773332871828079 15.646368963768976 5.0418
H 4.980260542400457 15.261609507547963 4.1121
H 4.854050092215929 14.85693416574392 5.6942
X 5.725351181156835 14.769189405677606 5.025487802395206
N 0.3304295128918382 17.55428518121582 5.0418
H 0.12375437021233693 17.93918034278376 4.1121
H 0.2502303455837154 18.343772776788473 5.6942
X -0.6217053819892644 18.430856646218245 5.025487804895334
0 4 A
0 1 A
1 3 S
1 5 A
2 4 A
2 7 A
4 6 S
5 7 A
2 9 S
5 8 S
10 11 S
10 12 S
11 7 S
13 12 S
14 15 S
14 16 S
0 15 S
17 16 S
