130
mol to xyz file
N 15.9892 10.5480 3.2906
H 16.1042 9.4440 3.2906
N 15.9892 6.3142 3.2906
H 16.1042 7.4182 3.2906
C 14.9220 11.3218 3.2906
C 15.3310 12.5773 3.2906
C 17.0563 11.3218 3.2906
C 16.6473 12.5773 3.2906
C 17.0563 5.5404 3.2906
C 16.6473 4.2849 3.2906
C 14.9220 5.5404 3.2906
C 15.3310 4.2849 3.2906
H 14.5689 13.4251 3.2906
H 17.2173 13.5646 3.2906
H 17.4094 3.4371 3.2906
H 14.7610 3.2976 3.2906
N 13.8728 8.4311 3.2906
N 18.1055 8.4311 3.2906
C 13.0980 9.4995 3.2906
C 11.8464 9.0911 3.2906
C 18.8803 9.4995 3.2906
C 20.1319 9.0911 3.2906
C 18.8803 7.3627 3.2906
C 20.1319 7.7711 3.2906
C 13.0980 7.3627 3.2906
C 11.8464 7.7711 3.2906
H 10.9982 9.8529 3.2906
C 13.5489 10.8716 3.2906
C 12.5797 11.8411 3.2906
H 20.9801 9.8529 3.2906
C 18.4294 10.8716 3.2906
C 19.3986 11.8411 3.2906
H 21.1192 7.2011 3.2906
C 18.4294 5.9906 3.2906
C 19.3986 5.0211 3.2906
H 10.8591 7.2011 3.2906
C 13.5489 5.9906 3.2906
C 12.5797 5.0211 3.2906
C 12.0952 12.3251 4.4783
H 12.4982 11.9212 5.4652
C 11.1259 13.2950 4.4783
H 10.7225 13.6977 5.4655
C 19.8831 12.3251 2.1030
C 20.8524 13.2950 2.1030
C 19.8831 4.5371 4.4783
H 19.4801 4.9410 5.4652
C 20.8524 3.5672 4.4783
H 21.2558 3.1645 5.4655
C 12.0952 4.5371 2.1030
H 12.4982 4.9410 1.1160
C 11.1259 3.5672 2.1030
H 10.7225 3.1645 1.1157
C 19.8831 4.5371 2.1030
H 19.4801 4.9410 1.1160
C 20.8524 3.5672 2.1030
H 21.2558 3.1645 1.1157
C 12.0952 4.5371 4.4783
H 12.4982 4.9410 5.4652
C 11.1259 3.5672 4.4783
H 10.7225 3.1645 5.4655
C 12.0952 12.3251 2.1030
H 12.4982 11.9212 1.1160
C 11.1259 13.2950 2.1030
H 10.7225 13.6977 1.1157
C 19.8831 12.3251 4.4783
H 19.4801 11.9212 5.4652
C 20.8524 13.2950 4.4783
H 21.2558 13.6977 5.4655
C 10.6433 13.7789 3.2906
C 21.3350 13.7789 3.2906
C 21.3350 3.0833 3.2906
C 10.6433 3.0833 3.2906
C 9.8384 14.5862 3.2890
C 22.1399 2.2760 3.2890
C 9.8384 2.2760 3.2923
C 8.6866 2.3350 2.2717
C 7.5992 1.2445 2.2739
C 7.6637 0.0950 3.2967
C 8.8154 0.0360 4.3172
C 9.9028 1.1265 4.3150
C 23.2917 2.3350 4.3095
C 24.3791 1.2445 4.3073
C 24.3146 0.0950 3.2846
C 23.1629 0.0360 2.2640
C 22.0755 1.1265 2.2662
C 8.6866 14.5272 4.3095
C 7.5992 15.6177 4.3073
C 7.6637 16.7672 3.2846
C 8.8154 16.8262 2.2640
C 9.9028 15.7357 2.2662
H 19.4801 11.9212 1.1160
H 21.2558 13.6977 1.1157
C 22.1399 14.5862 3.2923
C 23.2917 14.5272 2.2717
C 24.3791 15.6177 2.2739
C 24.3146 16.7672 3.2967
C 23.1629 16.8262 4.3172
C 22.0755 15.7357 4.3150
H 8.6389 3.1860 1.5146
H 6.7466 1.2882 1.5184
H 8.8631 -0.8150 5.0743
H 10.7554 1.0828 5.0705
H 23.3394 3.1860 5.0666
H 25.2317 1.2882 5.0628
H 23.1152 -0.8150 1.5069
H 21.2229 1.0828 1.5107
H 8.6389 13.6762 5.0666
H 6.7466 15.5740 5.0628
H 8.8631 17.6772 1.5069
H 10.7554 15.7794 1.5107
H 23.3394 13.6762 1.5146
H 25.2317 15.5740 1.5184
H 23.1152 17.6772 5.0743
H 21.2229 15.7794 5.0705
N 6.763836340897325 17.262370975549196 3.3009000000000004
H 6.662803176241619 17.68740179753703 2.3712000000000004
H 6.888827357253467 18.04601618597944 3.9533000000000005
X 6.074118154504577 18.35963778501275 3.282729724499547
N 7.173266993574979 -0.8074546338785755 3.313
H 6.748773238256538 -0.9107210451440406 2.3833
H 6.3889754610772345 -0.6865854399028561 3.9654000000000003
X 6.074118154504577 -1.4974377850127498 3.2985702755004533
N 25.214406390229087 -0.400275034806825 3.3009000000000004
H 25.315390402542032 -0.8253175376899801 2.3712000000000004
H 25.089324751943053 -1.1839057857116635 3.9533000000000005
X 25.904181845495422 -1.4974377850127498 3.282729724499547
N 24.80509857273323 17.669618999216365 3.313
H 25.229599829725064 17.772854568727798 2.3833
H 25.589381321441643 17.548692823065892 3.9654000000000003
X 25.904181845495422 18.35963778501275 3.2985702755004533
0 1 S
0 6 A
0 4 A
2 8 A
2 10 A
2 3 S
4 27 A
4 5 A
5 12 S
5 7 A
6 30 A
6 7 A
7 13 S
8 33 A
8 9 A
9 11 A
9 14 S
10 36 A
10 11 A
11 15 S
16 24 A
16 18 A
17 22 A
17 20 A
18 19 S
18 27 A
19 26 S
19 25 D
20 21 S
20 30 A
21 29 S
21 23 D
22 23 S
22 33 A
23 32 S
24 25 S
24 36 A
25 35 S
27 28 S
28 60 A
28 38 A
30 31 S
31 42 A
31 64 A
33 34 S
34 52 A
34 44 A
36 37 S
37 48 A
37 56 A
38 39 S
38 40 A
40 41 S
40 68 A
42 90 S
42 43 A
43 69 A
43 91 S
44 46 A
44 45 S
46 47 S
46 70 A
48 50 A
48 49 S
50 71 A
50 51 S
52 54 A
52 53 S
54 70 A
54 55 S
56 58 A
56 57 S
58 59 S
58 71 A
60 61 S
60 62 A
62 68 A
62 63 S
64 65 S
64 66 A
66 67 S
66 69 A
68 72 S
69 92 S
70 73 S
71 74 S
72 89 A
72 85 A
73 80 A
73 84 A
74 75 A
74 79 A
75 98 S
75 76 A
76 77 A
76 99 S
77 78 A
78 79 A
78 100 S
79 101 S
80 102 S
80 81 A
81 103 S
81 82 A
82 83 A
83 84 A
83 104 S
84 105 S
85 86 A
85 106 S
86 107 S
86 87 A
87 88 A
88 108 S
88 89 A
89 109 S
92 93 A
92 97 A
93 94 A
93 110 S
94 111 S
94 95 A
95 96 A
96 112 S
96 97 A
97 113 S
114 115 S
114 116 S
87 115 S
117 116 S
118 119 S
118 120 S
77 119 S
121 120 S
122 123 S
122 124 S
82 123 S
125 124 S
126 127 S
126 128 S
95 127 S
129 128 S
