135
Properties=species:S:1:pos:R:3 mol=T to=T xyz=T file=T pbc="F F F"
N 15.98920000 10.54800000 3.29060000
H 16.10420000 9.44400000 3.29060000
N 15.98920000 6.31420000 3.29060000
H 16.10420000 7.41820000 3.29060000
C 14.92200000 11.32180000 3.29060000
C 15.33100000 12.57730000 3.29060000
C 17.05630000 11.32180000 3.29060000
C 16.64730000 12.57730000 3.29060000
C 17.05630000 5.54040000 3.29060000
C 16.64730000 4.28490000 3.29060000
C 14.92200000 5.54040000 3.29060000
C 15.33100000 4.28490000 3.29060000
H 14.56890000 13.42510000 3.29060000
H 17.21730000 13.56460000 3.29060000
H 17.40940000 3.43710000 3.29060000
H 14.76100000 3.29760000 3.29060000
N 13.87280000 8.43110000 3.29060000
N 18.10550000 8.43110000 3.29060000
C 13.09800000 9.49950000 3.29060000
C 11.84640000 9.09110000 3.29060000
C 18.88030000 9.49950000 3.29060000
C 20.13190000 9.09110000 3.29060000
C 18.88030000 7.36270000 3.29060000
C 20.13190000 7.77110000 3.29060000
C 13.09800000 7.36270000 3.29060000
C 11.84640000 7.77110000 3.29060000
H 10.99820000 9.85290000 3.29060000
C 13.54890000 10.87160000 3.29060000
C 12.57970000 11.84110000 3.29060000
H 20.98010000 9.85290000 3.29060000
C 18.42940000 10.87160000 3.29060000
C 19.39860000 11.84110000 3.29060000
H 21.11920000 7.20110000 3.29060000
C 18.42940000 5.99060000 3.29060000
C 19.39860000 5.02110000 3.29060000
H 10.85910000 7.20110000 3.29060000
C 13.54890000 5.99060000 3.29060000
C 12.57970000 5.02110000 3.29060000
C 12.09520000 12.32510000 4.47830000
H 12.49820000 11.92120000 5.46520000
C 11.12590000 13.29500000 4.47830000
H 10.72250000 13.69770000 5.46550000
C 19.88310000 12.32510000 2.10300000
C 20.85240000 13.29500000 2.10300000
C 19.88310000 4.53710000 4.47830000
H 19.48010000 4.94100000 5.46520000
C 20.85240000 3.56720000 4.47830000
H 21.25580000 3.16450000 5.46550000
C 12.09520000 4.53710000 2.10300000
H 12.49820000 4.94100000 1.11600000
C 11.12590000 3.56720000 2.10300000
H 10.72250000 3.16450000 1.11570000
C 19.88310000 4.53710000 2.10300000
H 19.48010000 4.94100000 1.11600000
C 20.85240000 3.56720000 2.10300000
H 21.25580000 3.16450000 1.11570000
C 12.09520000 4.53710000 4.47830000
H 12.49820000 4.94100000 5.46520000
C 11.12590000 3.56720000 4.47830000
C 10.58095677 3.02320238 5.81188442
C 12.09520000 12.32510000 2.10300000
H 12.49820000 11.92120000 1.11600000
C 11.12590000 13.29500000 2.10300000
H 10.72250000 13.69770000 1.11570000
C 19.88310000 12.32510000 4.47830000
H 19.48010000 11.92120000 5.46520000
C 20.85240000 13.29500000 4.47830000
H 21.25580000 13.69770000 5.46550000
C 10.64330000 13.77890000 3.29060000
C 21.33500000 13.77890000 3.29060000
C 21.33500000 3.08330000 3.29060000
C 10.64330000 3.08330000 3.29060000
C 9.83840000 14.58620000 3.28900000
C 22.13990000 2.27600000 3.28900000
C 9.83840000 2.27600000 3.29230000
C 8.68660000 2.33500000 2.27170000
C 7.59920000 1.24450000 2.27390000
C 7.66370000 0.09500000 3.29670000
C 8.81540000 0.03600000 4.31720000
C 9.90280000 1.12650000 4.31500000
C 23.29170000 2.33500000 4.30950000
C 24.37910000 1.24450000 4.30730000
C 24.31460000 0.09500000 3.28460000
C 23.16290000 0.03600000 2.26400000
C 22.07550000 1.12650000 2.26620000
C 8.68660000 14.52720000 4.30950000
C 7.59920000 15.61770000 4.30730000
C 7.66370000 16.76720000 3.28460000
C 8.81540000 16.82620000 2.26400000
C 9.90280000 15.73570000 2.26620000
H 19.48010000 11.92120000 1.11600000
H 21.25580000 13.69770000 1.11570000
C 22.13990000 14.58620000 3.29230000
C 23.29170000 14.52720000 2.27170000
C 24.37910000 15.61770000 2.27390000
C 24.31460000 16.76720000 3.29670000
C 23.16290000 16.82620000 4.31720000
C 22.07550000 15.73570000 4.31500000
H 8.63890000 3.18600000 1.51460000
H 6.74660000 1.28820000 1.51840000
H 8.86310000 -0.81500000 5.07430000
H 10.75540000 1.08280000 5.07050000
H 23.33940000 3.18600000 5.06660000
H 25.23170000 1.28820000 5.06280000
H 23.11520000 -0.81500000 1.50690000
H 21.22290000 1.08280000 1.51070000
H 8.63890000 13.67620000 5.06660000
H 6.74660000 15.57400000 5.06280000
H 8.86310000 17.67720000 1.50690000
H 10.75540000 15.77940000 1.51070000
H 23.33940000 13.67620000 1.51460000
H 25.23170000 15.57400000 1.51840000
H 23.11520000 17.67720000 5.07430000
H 21.22290000 15.77940000 5.07050000
N 10.04729902 2.48957207 7.12001326
O 5.742398019110205 17.44765536828579 3.6119
C 7.020419265182932 17.68351993660141 3.2718
O 7.416403812449289 18.7742578007678 2.9854000000000003
H 5.293772727670665 18.357222648854297 3.8047
X 6.074118154504577 18.35963778501275 3.282729724499547
O 7.013120734537431 -1.8366230039399984 3.6239999999999997
C 6.757465819520375 -0.5624130665954404 3.2838999999999996
O 5.660718445688497 -0.1833905765069517 2.9974999999999996
H 6.110619810198351 -2.299299317972937 3.8167999999999997
X 6.074118154504577 -1.4974377850127498 3.2985702755004533
O 26.23595367508269 -0.5853093893562226 3.6119
C 24.957950353251757 -0.821271058677964 3.2718
O 24.562048679370815 -1.9120390058685077 2.9854000000000003
H 26.68464807246447 -1.4948425815807862 3.8047
X 25.904181845495422 -1.4974377850127498 3.282729724499547
O 24.964436829392294 18.69907290088281 3.6239999999999997
C 25.22058144748255 17.42496131447313 3.2838999999999996
O 26.317474411468982 17.046360369470264 2.9974999999999996
H 25.866759864927314 19.162096042359423 3.8167999999999997
X 25.904181845495422 18.35963778501275 3.2985702755004533
0 1 S
0 6 A
0 4 A
6 30 A
6 7 A
4 27 A
4 5 A
2 8 A
2 10 A
2 3 S
8 33 A
8 9 A
10 36 A
10 11 A
27 18 A
27 28 S
5 12 S
5 7 A
7 13 S
30 20 A
30 31 S
33 22 A
33 34 S
9 11 A
9 14 S
11 15 S
36 24 A
36 37 S
16 24 A
16 18 A
24 25 S
18 19 S
17 22 A
17 20 A
22 23 S
20 21 S
19 26 S
19 25 D
25 35 S
21 29 S
21 23 D
23 32 S
28 60 A
28 38 A
60 61 S
60 62 A
38 39 S
38 40 A
31 42 A
31 64 A
42 90 S
42 43 A
64 65 S
64 66 A
34 52 A
34 44 A
52 54 A
52 53 S
44 46 A
44 45 S
37 48 A
37 56 A
48 50 A
48 49 S
56 58 A
56 57 S
40 41 S
40 68 A
68 62 A
68 72 S
43 69 A
43 91 S
69 66 A
69 92 S
46 47 S
46 70 A
70 54 A
70 73 S
50 71 A
50 51 S
71 58 A
71 74 S
54 55 S
58 59 S
59 114 T
62 63 S
66 67 S
72 89 A
72 85 A
92 93 A
92 97 A
73 80 A
73 84 A
74 75 A
74 79 A
89 88 A
89 109 S
85 86 A
85 106 S
80 102 S
80 81 A
84 83 A
84 105 S
75 98 S
75 76 A
79 78 A
79 101 S
76 77 A
76 99 S
77 78 A
78 100 S
81 103 S
81 82 A
82 83 A
83 104 S
86 107 S
86 87 A
87 88 A
88 108 S
93 94 A
93 110 S
97 96 A
97 113 S
94 111 S
94 95 A
95 96 A
96 112 S
115 116 S
116 117 A
115 118 S
87 116 S
119 118 S
120 121 S
121 122 A
120 123 S
77 121 S
124 123 S
125 126 S
126 127 A
125 128 S
82 126 S
129 128 S
130 131 S
131 132 A
130 133 S
95 131 S
134 133 S
