10
mol to xyz file
N 7.7042 47.6448 28.1197
N 6.5548 47.7627 28.9089
N 8.490575102909235 48.305529216490754 28.136000000000003
H 8.923440135207965 48.24648039082062 27.206300000000002
H 9.176408353236104 47.90633587643348 28.788400000000003
X 9.31430795842332 46.86996226435637 27.312050483712348
N 5.809908791922226 47.05553241863867 28.9252
H 5.374261021654516 47.08824205423392 27.9955
H 5.10114567905089 47.412432152223516 29.5776
X 4.979674198023585 48.55380308095907 29.758730270444037
0 1 D
2 3 S
2 4 S
0 3 S
5 4 S
6 7 S
6 8 S
1 7 S
9 8 S
