12
mol to xyz file
N 7.7042 47.6448 28.1197
N 6.5548 47.7627 28.9089
O 9.685194724287289 48.12446729338774 28.447000000000003
C 8.74359131745642 47.228725464374214 28.1069
O 9.00779022087643 46.09880874645574 27.820500000000003
H 10.557855813471356 47.60770824564491 28.6398
X 9.31430795842332 46.86996226435637 27.312050483712348
O 4.55061356717816 47.39167769272878 29.2362
C 5.539621952241761 48.234786709566976 28.896099999999997
O 5.337377856637573 49.37741971092535 28.6097
H 3.7074037885291453 47.95521523290749 29.429
X 4.979674198023585 48.55380308095907 29.758730270444037
0 1 D
2 3 S
3 4 A
2 5 S
0 3 S
6 5 S
7 8 S
8 9 A
7 10 S
1 8 S
11 10 S
