11
Properties=species:S:1:pos:R:3 mol=T to=T xyz=T file=T pbc="F F F"
N 8.05300000 47.03880000 28.15430000
H 8.61710000 48.04070000 27.66230000
N 6.90350000 47.15680000 28.94350000
C 6.23038888 45.91682580 29.59104208
H 5.33075693 46.13651975 29.84398908
H 6.21775936 45.19344871 28.95996756
H 6.72644179 45.65346756 30.36961321
F 9.293093720993523 46.306927242512444 28.1543
X 9.66310128655892 46.26395544250926 27.346654735641245
F 5.718395255446193 47.97472231564865 28.9435
X 5.328405690113319 47.94789279177673 29.7932231016229
0 1 S
0 2 S
2 3 S
3 4 S
3 5 S
3 6 S
8 7 S
10 9 S
