15
Properties=species:S:1:pos:R:3 mol=T to=T xyz=T file=T pbc="F F F"
N 8.05300000 47.03880000 28.15430000
H 8.61710000 48.04070000 27.66230000
N 6.90350000 47.15680000 28.94350000
C 6.25297576 45.95843431 29.56931319
F 7.22870067 45.08008864 30.00212623
F 5.46822634 46.32206540 30.64901137
F 5.45758563 45.32611592 28.63188994
N 8.839388173835687 47.69951365965248 28.1706
H 9.272252037898033 47.64045627070737 27.2409
H 9.525213526862487 47.300306751964676 28.823
X 9.66310128655892 46.26395544250926 27.346654735641245
N 6.158540609010153 46.44970424568094 28.9598
H 5.722895994689699 46.48245588706857 28.0301
H 5.4498119123501425 46.806672317825495 29.6122
X 5.328405690113319 47.94789279177673 29.7932231016229
0 1 S
0 2 S
2 3 S
3 4 S
3 5 S
3 6 S
7 8 S
7 9 S
0 8 S
10 9 S
11 12 S
11 13 S
2 12 S
14 13 S
