12
mol to xyz file
N 8.0530 47.0388 28.1543
H 8.6171 48.0407 27.6623
N 6.9035 47.1568 28.9435
H 6.3612 46.1578 29.4652
N 8.839388173835687 47.69951365965248 28.1706
H 9.272252037898033 47.64045627070737 27.2409
H 9.525213526862487 47.300306751964676 28.823
X 9.66310128655892 46.26395544250926 27.346654735641245
N 6.158540609010153 46.44970424568094 28.9598
H 5.722895994689699 46.48245588706857 28.0301
H 5.4498119123501425 46.806672317825495 29.6122
X 5.328405690113319 47.94789279177673 29.7932231016229
0 1 S
0 2 S
2 3 S
4 5 S
4 6 S
0 5 S
7 6 S
8 9 S
8 10 S
2 9 S
11 10 S
