14
Properties=species:S:1:pos:R:3 mol=T to=T xyz=T file=T pbc="F F F"
N 8.05300000 47.03880000 28.15430000
H 8.61710000 48.04070000 27.66230000
N 6.90350000 47.15680000 28.94350000
Br 6.00286227 45.49768678 29.80992579
O 10.03402391813789 47.51834670863807 28.4816
C 9.092365988924278 46.62266219702188 28.141499999999997
O 9.356496113418002 45.492729399314456 27.8551
H 10.90665355039625 47.001534542658355 28.6744
X 9.66310128655892 46.26395544250926 27.346654735641245
O 4.899312788709857 46.78578189787957 29.2708
C 5.888322942768324 47.6288888395953 28.930699999999998
O 5.68608124461777 48.77152226529629 28.6443
H 4.056104192467609 47.34932120726551 29.4636
X 5.328405690113319 47.94789279177673 29.7932231016229
0 1 S
0 2 S
2 3 S
4 5 S
5 6 A
4 7 S
0 5 S
8 7 S
9 10 S
10 11 A
9 12 S
2 10 S
13 12 S
