17
Properties=species:S:1:pos:R:3 mol=T to=T xyz=T file=T pbc="F F F"
N 8.05300000 47.03880000 28.15430000
H 8.61710000 48.04070000 27.66230000
N 6.90350000 47.15680000 28.94350000
C 6.25297576 45.95843431 29.56931319
F 7.22870067 45.08008864 30.00212623
F 5.46822634 46.32206540 30.64901137
F 5.45758563 45.32611592 28.63188994
O 10.03402391813789 47.51834670863807 28.4816
C 9.092365988924278 46.62266219702188 28.141499999999997
O 9.356496113418002 45.492729399314456 27.8551
H 10.90665355039625 47.001534542658355 28.6744
X 9.66310128655892 46.26395544250926 27.346654735641245
O 4.899312788709857 46.78578189787957 29.2708
C 5.888322942768324 47.6288888395953 28.930699999999998
O 5.68608124461777 48.77152226529629 28.6443
H 4.056104192467609 47.34932120726551 29.4636
X 5.328405690113319 47.94789279177673 29.7932231016229
0 1 S
0 2 S
2 3 S
3 4 S
3 5 S
3 6 S
7 8 S
8 9 A
7 10 S
0 8 S
11 10 S
12 13 S
13 14 A
12 15 S
2 13 S
16 15 S
