10
Properties=species:S:1:pos:R:3 mol=T to=T xyz=T file=T pbc="F F F"
N 8.05300000 47.03880000 28.15430000
N 8.70233272 48.19208214 27.58796123
N 6.90350000 47.15680000 28.94350000
H 6.36120000 46.15780000 29.46520000
H 8.10872387 49.09566953 27.33655948
H 9.79665688 48.17761790 27.40262773
F 9.293093720993523 46.306927242512444 28.1543
X 9.66310128655892 46.26395544250926 27.346654735641245
F 5.718395255446193 47.97472231564865 28.9435
X 5.328405690113319 47.94789279177673 29.7932231016229
0 1 S
0 2 S
1 4 S
1 5 S
2 3 S
7 6 S
9 8 S
