14
Properties=species:S:1:pos:R:3 mol=T to=T xyz=T file=T pbc="F F F"
N 8.05300000 47.03880000 28.15430000
H 8.61710000 48.04070000 27.66230000
N 6.90350000 47.15680000 28.94350000
N 6.27930296 46.00693305 29.54398607
O 6.49175102 45.71515278 30.79455830
O 5.49235612 45.24017964 28.84614116
N 8.839388173835687 47.69951365965248 28.1706
H 9.272252037898033 47.64045627070737 27.2409
H 9.525213526862487 47.300306751964676 28.823
X 9.66310128655892 46.26395544250926 27.346654735641245
N 6.158540609010153 46.44970424568094 28.9598
H 5.722895994689699 46.48245588706857 28.0301
H 5.4498119123501425 46.806672317825495 29.6122
X 5.328405690113319 47.94789279177673 29.7932231016229
0 1 S
0 2 S
2 3 S
3 4 D
3 5 S
6 7 S
6 8 S
0 7 S
9 8 S
10 11 S
10 12 S
2 11 S
13 12 S
