19
Properties=species:S:1:pos:R:3 mol=T to=T xyz=T file=T pbc="F F F"
N 7.37890000 48.26460000 28.12320000
O 7.94300000 49.26650000 27.63120000
N 6.22940000 48.38250000 28.91240000
O 5.68710000 47.38360000 29.43420000
C 8.57465537 50.07320217 28.72716869
H 5.84620000 47.40760000 30.53240000
F 9.94445741 50.10336065 28.54389248
F 8.09579722 51.37107476 28.73255348
F 8.29355713 49.48835094 29.94789274
O 9.359883249888359 48.74431467943117 28.4505
C 8.418301269827214 47.84855032714642 28.1104
O 8.682527201228332 46.71863992929391 27.824
H 10.232556699904443 48.227576506236055 28.6433
X 8.989039395012293 47.48976893272114 27.31559889565239
O 4.225224057564769 48.01142103028621 29.239700000000003
C 5.214208605757379 48.85455800814701 28.8996
O 5.011932205581526 49.99718529118024 28.613200000000003
H 3.381998346854173 48.574934730915224 29.4325
X 4.654235894354765 49.17359499005615 29.762179670290806
0 1 S
0 2 S
1 4 S
2 3 S
3 5 S
4 6 S
4 7 S
4 8 S
9 10 S
10 11 A
9 12 S
0 10 S
13 12 S
14 15 S
15 16 A
14 17 S
2 15 S
18 17 S
