14
mol to xyz file
N 7.3789 48.2646 28.1232
O 7.9430 49.2665 27.6312
N 6.2294 48.3825 28.9124
O 5.6871 47.3836 29.4342
H 8.4103 49.8633 28.4420
H 5.8462 47.4076 30.5324
N 8.165298716135302 48.925301111896104 28.1395
H 8.59816163781815 48.86623681614825 27.2098
H 8.851117699297616 48.526083261175216 28.791900000000002
X 8.989039395012293 47.48976893272114 27.31559889565239
N 5.484480632881191 47.67536208099741 28.928700000000003
H 5.048834165466672 47.708089064195555 27.999000000000002
H 4.775731732429457 48.03229003746546 29.581100000000003
X 4.654235894354765 49.17359499005615 29.762179670290806
0 1 S
0 2 S
2 3 S
1 4 S
3 5 S
6 7 S
6 8 S
0 7 S
9 8 S
10 11 S
10 12 S
2 11 S
13 12 S
