12
Properties=species:S:1:pos:R:3 mol=T to=T xyz=T file=T pbc="F F F"
N 7.37890000 48.26460000 28.12320000
O 7.94300000 49.26650000 27.63120000
N 6.22940000 48.38250000 28.91240000
O 5.68710000 47.38360000 29.43420000
N 8.54909660 50.04056046 28.68282236
H 5.84620000 47.40760000 30.53240000
H 7.99387322 50.22642809 29.62580948
H 9.57167403 50.45159194 28.55056648
F 8.619032328378992 47.532792663258085 28.1232
X 8.989039395012293 47.48976893272114 27.31559889565239
F 5.044318329069165 49.20045574649475 28.9124
X 4.654235894354765 49.17359499005615 29.762179670290806
0 1 S
0 2 S
1 4 S
2 3 S
3 5 S
4 6 S
4 7 S
9 8 S
11 10 S
