16
mol to xyz file
N 7.3789 48.2646 28.1232
O 7.9430 49.2665 27.6312
N 6.2294 48.3825 28.9124
O 5.6871 47.3836 29.4342
H 8.4103 49.8633 28.4420
H 5.8462 47.4076 30.5324
O 9.359883249888359 48.74431467943117 28.4505
C 8.418301269827214 47.84855032714642 28.1104
O 8.682527201228332 46.71863992929391 27.824
H 10.232556699904443 48.227576506236055 28.6433
X 8.989039395012293 47.48976893272114 27.31559889565239
O 4.225224057564769 48.01142103028621 29.239700000000003
C 5.214208605757379 48.85455800814701 28.8996
O 5.011932205581526 49.99718529118024 28.613200000000003
H 3.381998346854173 48.574934730915224 29.4325
X 4.654235894354765 49.17359499005615 29.762179670290806
0 1 S
0 2 S
2 3 S
1 4 S
3 5 S
6 7 S
7 8 A
6 9 S
0 7 S
10 9 S
11 12 S
12 13 A
11 14 S
2 12 S
15 14 S
