14
Properties=species:S:1:pos:R:3 mol=T to=T xyz=T file=T pbc="F F F"
N 7.37890000 48.26460000 28.12320000
O 7.94300000 49.26650000 27.63120000
N 6.22940000 48.38250000 28.91240000
O 5.68710000 47.38360000 29.43420000
H 8.41030000 49.86330000 28.44200000
F 5.88144890 47.41291724 30.77570822
N 8.165298716135302 48.925301111896104 28.1395
H 8.59816163781815 48.86623681614825 27.2098
H 8.851117699297616 48.526083261175216 28.791900000000002
X 8.989039395012293 47.48976893272114 27.31559889565239
N 5.484480632881191 47.67536208099741 28.928700000000003
H 5.048834165466672 47.708089064195555 27.999000000000002
H 4.775731732429457 48.03229003746546 29.581100000000003
X 4.654235894354765 49.17359499005615 29.762179670290806
0 1 S
0 2 S
1 4 S
2 3 S
3 5 S
6 7 S
6 8 S
0 7 S
9 8 S
10 11 S
10 12 S
2 11 S
13 12 S
