17
Properties=species:S:1:pos:R:3 mol=T to=T xyz=T file=T pbc="F F F"
N 7.37890000 48.26460000 28.12320000
O 7.94300000 49.26650000 27.63120000
N 6.22940000 48.38250000 28.91240000
O 5.68710000 47.38360000 29.43420000
H 8.41030000 49.86330000 28.44200000
C 5.90962489 47.41716755 30.97019519
H 5.11030971 47.72630466 31.40276283
H 6.12137019 46.53429473 31.28226646
H 6.63496374 48.01156045 31.17557214
N 8.165298716135302 48.925301111896104 28.1395
H 8.59816163781815 48.86623681614825 27.2098
H 8.851117699297616 48.526083261175216 28.791900000000002
X 8.989039395012293 47.48976893272114 27.31559889565239
N 5.484480632881191 47.67536208099741 28.928700000000003
H 5.048834165466672 47.708089064195555 27.999000000000002
H 4.775731732429457 48.03229003746546 29.581100000000003
X 4.654235894354765 49.17359499005615 29.762179670290806
0 1 S
0 2 S
1 4 S
2 3 S
3 5 S
5 6 S
5 7 S
5 8 S
9 10 S
9 11 S
0 10 S
12 11 S
13 14 S
13 15 S
2 14 S
16 15 S
