12
mol to xyz file
C 0.0000 13.5769 7.6036
C 0.0000 14.5419 8.8037
H 0.0000 13.9890 6.5407
H 0.0000 14.1297 9.8666
N -0.15712894795107588 15.556916942575732 8.819999999999999
H 0.11783980523115505 15.896403444182805 7.890299999999999
H 0.5398581301362844 15.936300103745605 9.472399999999999
X 0.0 16.23427610392686 9.958835642410005
N 0.15619959941872283 12.5617396259007 7.6199
H -0.11907985001126131 12.222505009858168 6.6902
H -0.5411345248024065 12.18299473920683 8.2723
X 0.0 11.889642883562988 6.449828542260058
0 2 S
0 1 D
1 3 S
4 5 S
4 6 S
1 5 S
7 6 S
8 9 S
8 10 S
0 9 S
11 10 S
