15
Properties=species:S:1:pos:R:3 mol=T to=T xyz=T file=T pbc="F F F"
C 0.00000000 13.57690000 7.60360000
C 0.00000000 14.54190000 8.80370000
H 0.00000000 13.98900000 6.54070000
C 0.00000000 13.99294633 10.21923337
O 0.54674213 12.80841437 10.46397227
O -0.47475912 14.66183054 11.13787332
H 0.62286855 12.69763597 11.46933804
N -0.15712894795107588 15.556916942575732 8.819999999999999
H 0.11783980523115505 15.896403444182805 7.890299999999999
H 0.5398581301362844 15.936300103745605 9.472399999999999
X 0.0 16.23427610392686 9.958835642410005
N 0.15619959941872283 12.5617396259007 7.6199
H -0.11907985001126131 12.222505009858168 6.6902
H -0.5411345248024065 12.18299473920683 8.2723
X 0.0 11.889642883562988 6.449828542260058
0 2 S
0 1 D
1 3 S
3 4 S
3 5 D
4 6 S
7 8 S
7 9 S
1 8 S
10 9 S
11 12 S
11 13 S
0 12 S
14 13 S
