11
Properties=species:S:1:pos:R:3 mol=T to=T xyz=T file=T pbc="F F F"
C 0.00000000 13.57690000 7.60360000
C 0.00000000 14.54190000 8.80370000
H 0.00000000 13.98900000 6.54070000
C 0.00000000 13.98060131 10.25106627
H -0.81281043 14.23599498 10.69344454
H 0.06172444 13.02295409 10.22294385
H 0.75120859 14.33557275 10.73198205
F -0.024882445917365617 15.98163991883436 8.8037
X 0.0 16.23427610392686 9.958835642410005
F 0.025106353948853098 12.137163968294399 7.6036
X 0.0 11.889642883562988 6.449828542260058
0 2 S
0 1 D
1 3 S
3 4 S
3 5 S
3 6 S
8 7 S
10 9 S
