11
Properties=species:S:1:pos:R:3 mol=T to=T xyz=T file=T pbc="F F F"
C 0.00000000 13.57690000 7.60360000
C 0.00000000 14.54190000 8.80370000
H 0.00000000 13.98900000 6.54070000
C 0.00000000 13.99943622 10.20249852
F 1.27785796 13.59174339 10.53674833
F -0.41539590 14.95706623 11.11035226
F -0.85486569 12.91533096 10.27429553
F -0.024882445917365617 15.98163991883436 8.8037
X 0.0 16.23427610392686 9.958835642410005
F 0.025106353948853098 12.137163968294399 7.6036
X 0.0 11.889642883562988 6.449828542260058
0 2 S
0 1 D
1 3 S
3 4 S
3 5 S
3 6 S
8 7 S
10 9 S
