10
Properties=species:S:1:pos:R:3 mol=T to=T xyz=T file=T pbc="F F F"
C 0.00000000 13.57690000 7.60360000
C 0.00000000 14.54190000 8.80370000
N 0.00000000 14.09730422 6.26135869
H 0.00000000 14.12970000 9.86660000
H -0.61517522 13.60928372 5.47685890
H 0.61530389 14.98657992 6.01097312
F -0.024882445917365617 15.98163991883436 8.8037
X 0.0 16.23427610392686 9.958835642410005
F 0.025106353948853098 12.137163968294399 7.6036
X 0.0 11.889642883562988 6.449828542260058
0 2 S
0 1 D
2 4 S
2 5 S
1 3 S
7 6 S
9 8 S
