17
Properties=species:S:1:pos:R:3 mol=T to=T xyz=T file=T pbc="F F F"
C 0.00000000 13.57690000 7.60360000
C 0.00000000 14.54190000 8.80370000
H 0.00000000 13.98900000 6.54070000
C 0.00000000 13.99943622 10.20249852
F 1.27785796 13.59174339 10.53674833
F -0.41539590 14.95706623 11.11035226
F -0.85486569 12.91533096 10.27429553
O -1.3838678179634942 16.038339331347903 9.130999999999998
C -0.14291757673321775 15.652317442343511 8.790899999999999
O 0.7151945605023723 16.433442534712825 8.504499999999998
H -1.3576380395887695 17.052188081767024 9.323799999999999
X 0.0 16.23427610392686 9.958835642410005
O 1.3871438548865263 12.083496927868921 7.9309
C 0.1453506488906089 12.46679841957275 7.590800000000001
O -0.711047637563236 11.683794699939874 7.3044
H 1.3631359301480845 11.069593130879406 8.123700000000001
X 0.0 11.889642883562988 6.449828542260058
0 2 S
0 1 D
1 3 S
3 4 S
3 5 S
3 6 S
7 8 S
8 9 A
7 10 S
1 8 S
11 10 S
12 13 S
13 14 A
12 15 S
0 13 S
16 15 S
