19
mol to xyz file
N -0.4000 13.6490 8.0882
C 0.1775 12.4380 8.7980
N 0.4258 12.4570 10.3052
C 0.1153 13.6922 11.1309
C -0.4566 14.9051 10.3964
C -0.7071 14.8704 8.9092
N -1.2468 16.2025 8.4623
C -1.3067 17.0433 9.7317
N -0.8254 16.2583 10.9422
H 0.3099 13.6907 12.2541
H -0.7086 16.4704 12.0255
N 0.7484748638529773 11.584222157204772 8.8143
H 0.6425446034192004 11.160385301888446 7.8846
H 0.27682743883830496 10.94604406569972 9.4667
X 0.8105659387119769 10.408212560846424 8.232026516268867
N -1.8454904597516912 17.917744818430847 9.748
H -1.7238530350774266 18.337343718475417 8.8183
H -1.3504089363676768 18.537919677002012 10.4004
X -1.9695792195932111 19.136177054172524 10.15581485800791
0 5 A
0 1 A
1 2 A
2 3 A
3 9 S
3 4 A
4 5 A
4 8 A
5 6 A
6 7 A
7 8 A
8 10 S
11 12 S
11 13 S
1 12 S
14 13 S
15 16 S
15 17 S
7 16 S
18 17 S
