22
Properties=species:S:1:pos:R:3 mol=T to=T xyz=T file=T pbc="F F F"
N -0.40000000 13.64900000 8.08820000
C 0.17750000 12.43800000 8.79800000
N 0.42580000 12.45700000 10.30520000
C 0.11530000 13.69220000 11.13090000
C -0.45660000 14.90510000 10.39640000
C -0.70710000 14.87040000 8.90920000
N -1.24680000 16.20250000 8.46230000
C -1.30670000 17.04330000 9.73170000
N -0.82540000 16.25830000 10.94220000
H 0.30990000 13.69070000 12.25410000
C -0.66205353 16.55492488 12.45721054
H -1.49931175 16.85776994 12.81619356
H -0.38939241 15.75483100 12.91239695
H 0.00371866 17.23554604 12.58009785
N 0.7484748638529773 11.584222157204772 8.8143
H 0.6425446034192004 11.160385301888446 7.8846
H 0.27682743883830496 10.94604406569972 9.4667
X 0.8105659387119769 10.408212560846424 8.232026516268867
N -1.8454904597516912 17.917744818430847 9.748
H -1.7238530350774266 18.337343718475417 8.8183
H -1.3504089363676768 18.537919677002012 10.4004
X -1.9695792195932111 19.136177054172524 10.15581485800791
0 5 A
0 1 A
5 4 A
5 6 A
1 2 A
2 3 A
3 9 S
3 4 A
4 8 A
8 7 A
8 10 S
6 7 A
10 11 S
10 12 S
10 13 S
14 15 S
14 16 S
1 15 S
17 16 S
18 19 S
18 20 S
7 19 S
21 20 S
