16
Properties=species:S:1:pos:R:3 mol=T to=T xyz=T file=T pbc="F F F"
N -0.40000000 13.64900000 8.08820000
C 0.17750000 12.43800000 8.79800000
N 0.42580000 12.45700000 10.30520000
C 0.11530000 13.69220000 11.13090000
C -0.45660000 14.90510000 10.39640000
C -0.70710000 14.87040000 8.90920000
N -1.24680000 16.20250000 8.46230000
C -1.30670000 17.04330000 9.73170000
N -0.82540000 16.25830000 10.94220000
S 0.42426982 13.68981842 12.91422428
H -0.70860000 16.47040000 12.02550000
H -0.76443275 14.01990951 13.59695937
F 0.6231420351563435 11.068739854336762 8.798
X 0.8105659387119769 10.408212560846424 8.232026516268867
F -1.7284964220471193 18.42009263084469 9.7317
X -1.9695792195932111 19.136177054172524 10.15581485800791
0 5 A
0 1 A
5 4 A
5 6 A
1 2 A
2 3 A
3 9 S
3 4 A
9 11 S
4 8 A
8 7 A
8 10 S
6 7 A
13 12 S
15 14 S
