15
mol to xyz file
N -0.4000 13.6490 8.0882
C 0.1775 12.4380 8.7980
N 0.4258 12.4570 10.3052
C 0.1153 13.6922 11.1309
C -0.4566 14.9051 10.3964
C -0.7071 14.8704 8.9092
N -1.2468 16.2025 8.4623
C -1.3067 17.0433 9.7317
N -0.8254 16.2583 10.9422
H 0.3099 13.6907 12.2541
H -0.7086 16.4704 12.0255
F 0.6231420351563435 11.068739854336762 8.798
X 0.8105659387119769 10.408212560846424 8.232026516268867
F -1.7284964220471193 18.42009263084469 9.7317
X -1.9695792195932111 19.136177054172524 10.15581485800791
0 5 A
0 1 A
1 2 A
2 3 A
3 9 S
3 4 A
4 5 A
4 8 A
5 6 A
6 7 A
7 8 A
8 10 S
12 11 S
14 13 S
