21
mol to xyz file
N -0.4000 13.6490 8.0882
C 0.1775 12.4380 8.7980
N 0.4258 12.4570 10.3052
C 0.1153 13.6922 11.1309
C -0.4566 14.9051 10.3964
C -0.7071 14.8704 8.9092
N -1.2468 16.2025 8.4623
C -1.3067 17.0433 9.7317
N -0.8254 16.2583 10.9422
H 0.3099 13.6907 12.2541
H -0.7086 16.4704 12.0255
O 1.6018942489528203 10.980083049844701 9.1253
C 0.35082240891096106 11.33192058487227 8.7852
O -0.4855406858219242 10.527551500577733 8.4988
H 1.6034840809742463 9.965896300555329 9.3181
X 0.8105659387119769 10.408212560846424 8.232026516268867
O -2.7475178934081983 18.48498811052695 10.059
C -1.4925407685327183 18.14734508003576 9.7189
O -0.6653430932552992 18.961136733971603 9.4325
H -2.7605961591868846 19.499091778286918 10.2518
X -1.9695792195932111 19.136177054172524 10.15581485800791
0 5 A
0 1 A
1 2 A
2 3 A
3 9 S
3 4 A
4 5 A
4 8 A
5 6 A
6 7 A
7 8 A
8 10 S
11 12 S
12 13 A
11 14 S
1 12 S
15 14 S
16 17 S
17 18 A
16 19 S
7 17 S
20 19 S
