22
Properties=species:S:1:pos:R:3 mol=T to=T xyz=T file=T pbc="F F F"
N -0.40000000 13.64900000 8.08820000
C 0.17750000 12.43800000 8.79800000
N 0.42580000 12.45700000 10.30520000
C 0.11530000 13.69220000 11.13090000
C -0.45660000 14.90510000 10.39640000
C -0.70710000 14.87040000 8.90920000
N -1.24680000 16.20250000 8.46230000
C -1.30670000 17.04330000 9.73170000
N -0.82540000 16.25830000 10.94220000
C 0.37818172 13.69017368 12.64821112
H -0.70860000 16.47040000 12.02550000
N 0.63671649 13.68780206 14.13613152
O 1.6018942489528203 10.980083049844701 9.1253
C 0.35082240891096106 11.33192058487227 8.7852
O -0.4855406858219242 10.527551500577733 8.4988
H 1.6034840809742463 9.965896300555329 9.3181
X 0.8105659387119769 10.408212560846424 8.232026516268867
O -2.7475178934081983 18.48498811052695 10.059
C -1.4925407685327183 18.14734508003576 9.7189
O -0.6653430932552992 18.961136733971603 9.4325
H -2.7605961591868846 19.499091778286918 10.2518
X -1.9695792195932111 19.136177054172524 10.15581485800791
0 5 A
0 1 A
5 4 A
5 6 A
1 2 A
2 3 A
3 9 S
3 4 A
9 11 T
4 8 A
8 7 A
8 10 S
6 7 A
12 13 S
13 14 A
12 15 S
1 13 S
16 15 S
17 18 S
18 19 A
17 20 S
7 18 S
21 20 S
