12
mol to xyz file
C -1.1353 0.1953 -0.0753
C -0.1594 -0.7839 -0.0811
C 0.8198 0.1919 -0.0588
C -0.1562 1.1711 -0.0530
F -0.15388702816871067 2.6110530617910106 -0.053
X -0.15258337295946806 3.4208431315047534 -0.02074215243208001
F 2.2597505219735683 0.18834131090885722 -0.0588
X 3.0697443193097786 0.1879916013167003 -0.03974159462516362
F -0.16178661889538248 -2.2238529416096373 -0.0811
X -0.1630933451505667 -3.033643005956291 -0.11335784576336154
F -2.575250521397125 0.19885892232956073 -0.0753
X -3.3852443136138612 0.1992085320919092 -0.09435905279897125
0 3 D
0 1 S
1 2 D
2 3 S
5 4 S
7 6 S
9 8 S
11 10 S
