20
mol to xyz file
C -1.1353 0.1953 -0.0753
C -0.1594 -0.7839 -0.0811
C 0.8198 0.1919 -0.0588
C -0.1562 1.1711 -0.0530
N -0.44287683673800615 2.15738864501113 -0.036699999999999997
H -0.21397048526852164 2.529491832657956 -0.9664
H 0.1993823184628134 2.6234634754415342 0.6157
X -0.15258337295946806 3.4208431315047534 -0.02074215243208001
N 1.804088050656838 0.48537220197858943 -0.042499999999999996
H 2.1777610978196833 0.25903759608714805 -0.9722000000000001
H 2.2745812953899214 -0.15365727829640904 0.6099
X 3.0697443193097786 0.1879916013167003 -0.03974159462516362
N 0.12722649841950023 -1.7702032750649144 -0.06480000000000001
H -0.10169884405823706 -2.142294779363858 -0.9945
H -0.5150564433516448 -2.2362453254314065 0.5876
X -0.1630933451505667 -3.033643005956291 -0.11335784576336154
N -2.119588104823172 -0.09817202030791275 -0.05900000000000001
H -2.493261110211289 0.12816265455259684 -0.9887
H -2.5900812316101702 0.5408575468063123 0.5934
X -3.3852443136138612 0.1992085320919092 -0.09435905279897125
0 3 D
0 1 S
1 2 D
2 3 S
4 5 S
4 6 S
3 5 S
7 6 S
8 9 S
8 10 S
2 9 S
11 10 S
12 13 S
12 14 S
1 13 S
15 14 S
16 17 S
16 18 S
0 17 S
19 18 S
