24
mol to xyz file
C -1.1353 0.1953 -0.0753
C -0.1594 -0.7839 -0.0811
C 0.8198 0.1919 -0.0588
C -0.1562 1.1711 -0.0530
O -1.0386256707614514 3.008420262115781 0.27430000000000004
C 0.03385922854038423 2.2744267057615497 -0.0658
O 1.0837868807489714 2.7685570277695852 -0.35219999999999996
H -0.715311155506293 3.9696928635277438 0.46710000000000007
X -0.15258337295946806 3.4208431315047534 -0.02074215243208001
O 2.664333267515989 1.0591472744418335 0.2685
C 1.9215221974548489 -0.00724951577962285 -0.0716
O 2.4069792435580695 -1.0612155049788645 -0.358
H 3.6229075210111508 0.7279182139169547 0.46130000000000004
X 3.0697443193097786 0.1879916013167003 -0.03974159462516362
O 0.7229321533825972 -2.6212651735861408 0.24620000000000003
C -0.34951538560250744 -1.8872170306658054 -0.0939
O -1.39946818677938 -2.3812939126394914 -0.38029999999999997
H 0.3995687115316272 -3.5825213176363593 0.43900000000000006
X -0.1630933451505667 -3.033643005956291 -0.11335784576336154
O -2.979833395917481 -0.6719470013468627 0.252
C -2.237022167969476 0.3944496788966469 -0.0881
O -2.722479058026278 1.4484157399709012 -0.37449999999999994
H -3.9384076003720483 -0.34071779889893083 0.4448000000000001
X -3.3852443136138612 0.1992085320919092 -0.09435905279897125
0 3 D
0 1 S
1 2 D
2 3 S
4 5 S
5 6 A
4 7 S
3 5 S
8 7 S
9 10 S
10 11 A
9 12 S
2 10 S
13 12 S
14 15 S
15 16 A
14 17 S
1 15 S
18 17 S
19 20 S
20 21 A
19 22 S
0 20 S
23 22 S
