28
mol to xyz file
C -1.0923 0.3637 0.0000
C -0.0033 -0.7252 0.0000
C 1.0856 0.3637 0.0000
C -0.0033 1.4527 0.0000
C -2.6323 0.3637 0.0000
C -4.1723 0.3739 0.0000
C 2.6256 0.3637 0.0000
C 4.1656 0.3637 0.0000
C -0.0011 2.9926 0.0000
C -0.0003 4.5326 0.0000
C 0.0327 -2.2648 0.0000
C 0.0318 -3.8048 0.0000
N -5.1559177819203015 0.0781890615986876 0.016300000000000002
H -5.530104828460209 0.3036728840821238 -0.9134
H -5.627863757193836 0.7161464006293725 0.6687000000000001
X -6.422198281555277 0.3810705354475173 0.0
N -0.29099894345374816 5.517710666004016 0.016300000000000002
H -0.06361284300001036 5.890744794899004 -0.9134
H 0.34935307374457847 5.98640231738052 0.6687000000000001
X -0.002249922987099093 6.78259815928619 0.0
N 5.149051426658774 0.6599637193495385 0.016300000000000002
H 5.523365143906734 0.43469023870875323 -0.9134
H 5.621355881766968 0.022271731251089777 0.6687000000000001
X 6.415599349049088 0.36230255507676873 0.0
N 0.32698232970476104 -4.788576545883297 0.016300000000000002
H 0.10129746314529833 -5.1626423703126845 -0.9134
H -0.3112285264951324 -5.260179634325896 0.6687000000000001
X 0.040594230945655924 -6.054771821774436 0.0
0 3 S
0 4 S
0 1 D
1 2 S
1 10 S
2 3 D
2 6 S
3 8 S
4 5 T
6 7 T
8 9 T
10 11 T
12 13 S
12 14 S
5 13 S
15 14 S
16 17 S
16 18 S
9 17 S
19 18 S
20 21 S
20 22 S
7 21 S
23 22 S
24 25 S
24 26 S
11 25 S
27 26 S
