32
mol to xyz file
C -1.0923 0.3637 0.0000
C -0.0033 -0.7252 0.0000
C 1.0856 0.3637 0.0000
C -0.0033 1.4527 0.0000
C -2.6323 0.3637 0.0000
C -4.1723 0.3739 0.0000
C 2.6256 0.3637 0.0000
C 4.1656 0.3637 0.0000
C -0.0011 2.9926 0.0000
C -0.0003 4.5326 0.0000
C 0.0327 -2.2648 0.0000
C 0.0318 -3.8048 0.0000
O -6.015664211283428 -0.4958293800714242 0.32730000000000004
C -5.274289270724999 0.5715663279544172 -0.012799999999999999
O -5.761164600693855 1.6248778977511793 -0.29919999999999997
H -6.9746834575119845 -0.165890938292943 0.5201
X -6.422198281555277 0.3810705354475173 0.0
O -0.8860753959233019 6.368307699492738 0.32730000000000004
C 0.18774649201868213 5.636271530320261 -0.012799999999999999
O 1.2367711253482452 6.132316053188699 -0.29919999999999997
H -0.5645147382821122 7.330168413659486 0.5201
X -0.002249922987099093 6.78259815928619 0.0
O 6.008461779959362 1.2344934714758813 0.32730000000000004
C 5.267703206510668 0.16666992057327135 -0.012799999999999999
O 5.7551865676444125 -0.8863603841272857 -0.29919999999999997
H 6.967671350954502 0.9051087588504788 0.5201
X 6.415599349049088 0.36230255507676873 0.0
O 0.9259098191105496 -5.636462753175404 0.32730000000000004
C -0.15122819352843597 -4.909314830309542 -0.012799999999999999
O -1.197987392892942 -5.410122206998203 -0.29919999999999997
H 0.6087242871876956 -6.599775074460052 0.5201
X 0.040594230945655924 -6.054771821774436 0.0
0 3 S
0 4 S
0 1 D
1 2 S
1 10 S
2 3 D
2 6 S
3 8 S
4 5 T
6 7 T
8 9 T
10 11 T
12 13 S
13 14 A
12 15 S
5 13 S
16 15 S
17 18 S
18 19 A
17 20 S
9 18 S
21 20 S
22 23 S
23 24 A
22 25 S
7 23 S
26 25 S
27 28 S
28 29 A
27 30 S
11 28 S
31 30 S
