20
mol to xyz file
C -1.0923 0.3637 0.0000
C -0.0033 -0.7252 0.0000
C 1.0856 0.3637 0.0000
C -0.0033 1.4527 0.0000
C -2.6323 0.3637 0.0000
C -4.1723 0.3739 0.0000
C 2.6256 0.3637 0.0000
C 4.1656 0.3637 0.0000
C -0.0011 2.9926 0.0000
C -0.0003 4.5326 0.0000
C 0.0327 -2.2648 0.0000
C 0.0318 -3.8048 0.0000
F -5.612253269777954 0.37607964579160386 0.0
X -6.422198281555277 0.3810705354475173 0.0
F -0.0025558554437085383 5.9725531524033055 0.0
X -0.002249922987099093 6.78259815928619 0.0
F 5.605554294539932 0.362358494872096 0.0
X 6.415599349049088 0.36230255507676873 0.0
F 0.04062618538706784 -5.244727869183562 0.0
X 0.040594230945655924 -6.054771821774436 0.0
0 3 S
0 4 S
0 1 D
1 2 S
1 10 S
2 3 D
2 6 S
3 8 S
4 5 T
6 7 T
8 9 T
10 11 T
13 12 S
15 14 S
17 16 S
19 18 S
