28
Properties=species:S:1:pos:R:3 mol=T to=T xyz=T file=T pbc="F F F"
C 8.79440000 13.68570000 5.02540000
C 8.81320000 12.27980000 5.02540000
C 11.23080000 13.68920000 5.02540000
H 7.88430000 11.71960000 5.02540000
C 10.01490000 14.38370000 5.02540000
C 10.02920000 11.58530000 5.02540000
H 10.02550000 15.46840000 5.02540000
C 11.24970000 12.28330000 5.02540000
C 12.58680000 11.51960000 5.02540000
C 12.60560000 10.11380000 5.02540000
C 15.02320000 11.52310000 5.02540000
H 11.67670000 9.55350000 5.02540000
C 13.80720000 12.21760000 5.02540000
C 13.82160000 9.41930000 5.02540000
H 13.81790000 13.30240000 5.02540000
C 15.04200000 10.11730000 5.02540000
H 13.81090000 8.33460000 5.02540000
H 10.01860000 10.50060000 5.02540000
H 15.95210000 12.08340000 5.02540000
Cl 12.39186801 14.38934026 5.02540000
N 7.79650870555573 13.92893212056046 5.0417000000000005
H 7.588078584709243 14.312879753348996 4.112
H 7.712706187830711 14.718045362131624 5.694100000000001
X 6.840690338945362 14.801554691402194 5.0254
N 16.03989375907016 9.874077991109305 5.0417000000000005
H 16.248327770456847 9.490132470368073 4.112
H 16.123704272894955 9.084965598751646 5.694100000000001
X 16.995817361807845 9.00135879117424 5.0254
0 1 A
0 4 A
1 3 S
1 5 A
4 2 A
4 6 S
5 7 A
5 17 S
2 7 A
2 19 S
7 8 S
15 10 A
15 13 A
8 12 A
8 9 A
12 10 A
12 14 S
9 11 S
9 13 A
13 16 S
10 18 S
20 21 S
20 22 S
0 21 S
23 22 S
24 25 S
24 26 S
25 15 S
27 26 S
