30
mol to xyz file
C 8.7944 13.6857 5.0254
C 8.8132 12.2798 5.0254
C 11.2308 13.6892 5.0254
H 7.8843 11.7196 5.0254
C 10.0149 14.3837 5.0254
C 10.0292 11.5853 5.0254
H 10.0255 15.4684 5.0254
C 11.2497 12.2833 5.0254
C 12.5868 11.5196 5.0254
C 12.6056 10.1138 5.0254
C 15.0232 11.5231 5.0254
H 11.6767 9.5535 5.0254
C 13.8072 12.2176 5.0254
C 13.8216 9.4193 5.0254
H 13.8179 13.3024 5.0254
C 15.0420 10.1173 5.0254
H 13.8109 8.3346 5.0254
H 10.0186 10.5006 5.0254
H 15.9521 12.0834 5.0254
H 12.1598 14.2494 5.0254
O 6.761745173050323 13.836481843993846 5.3527000000000005
C 7.9326269109246015 14.400402366685215 5.012600000000001
O 8.02757026998766 15.556905115739374 4.7262
H 6.089541639889028 14.595902478428723 5.5455000000000005
X 6.840690338945362 14.801554691402194 5.0254
O 17.074656382525287 9.966539127824184 5.3527000000000005
C 15.903780462933865 9.402606524651658 5.012600000000001
O 15.808849036032568 8.246102796085907 4.7262
H 17.746867750933532 9.20712542885457 5.5455000000000005
X 16.995817361807845 9.00135879117424 5.0254
0 1 A
0 4 A
1 3 S
1 5 A
2 7 A
2 4 A
4 6 S
5 7 A
8 12 A
8 9 A
9 11 S
9 13 A
10 12 A
10 15 A
12 14 S
13 15 A
2 19 S
5 17 S
7 8 S
10 18 S
13 16 S
20 21 S
21 22 A
20 23 S
0 21 S
24 23 S
25 26 S
26 27 A
25 28 S
26 15 S
29 28 S
