27
Properties=species:S:1:pos:R:3 mol=T to=T xyz=T file=T pbc="F F F"
C 8.79440000 13.68570000 5.02540000
C 8.81320000 12.27980000 5.02540000
C 11.23080000 13.68920000 5.02540000
H 7.88430000 11.71960000 5.02540000
C 10.01490000 14.38370000 5.02540000
C 10.02920000 11.58530000 5.02540000
H 10.02550000 15.46840000 5.02540000
C 11.24970000 12.28330000 5.02540000
C 12.58680000 11.51960000 5.02540000
C 12.60560000 10.11380000 5.02540000
C 15.02320000 11.52310000 5.02540000
H 11.67670000 9.55350000 5.02540000
C 13.80720000 12.21760000 5.02540000
C 13.82160000 9.41930000 5.02540000
H 13.81790000 13.30240000 5.02540000
C 15.04200000 10.11730000 5.02540000
H 13.81090000 8.33460000 5.02540000
H 10.01860000 10.50060000 5.02540000
H 15.95210000 12.08340000 5.02540000
C 12.56019542 14.49084404 5.02540000
H 12.78317862 14.74095307 4.12578385
H 13.26217476 13.94648095 5.38951921
H 12.45751793 15.28086456 5.56105284
F 7.544029870636697 14.399874145146685 5.0254
X 6.840690338945362 14.801554691402194 5.0254
F 16.292377521854945 9.403138797721489 5.0254
X 16.995817361807845 9.00135879117424 5.0254
0 1 A
0 4 A
1 3 S
1 5 A
4 2 A
4 6 S
5 7 A
5 17 S
2 7 A
2 19 S
7 8 S
15 10 A
15 13 A
8 12 A
8 9 A
12 10 A
12 14 S
9 11 S
9 13 A
13 16 S
10 18 S
19 20 S
19 21 S
19 22 S
24 23 S
26 25 S
