28
mol to xyz file
C 8.7944 13.6857 5.0254
C 8.8132 12.2798 5.0254
C 11.2308 13.6892 5.0254
H 7.8843 11.7196 5.0254
C 10.0149 14.3837 5.0254
C 10.0292 11.5853 5.0254
H 10.0255 15.4684 5.0254
C 11.2497 12.2833 5.0254
C 12.5868 11.5196 5.0254
C 12.6056 10.1138 5.0254
C 15.0232 11.5231 5.0254
H 11.6767 9.5535 5.0254
C 13.8072 12.2176 5.0254
C 13.8216 9.4193 5.0254
H 13.8179 13.3024 5.0254
C 15.0420 10.1173 5.0254
H 13.8109 8.3346 5.0254
H 10.0186 10.5006 5.0254
H 15.9521 12.0834 5.0254
H 12.1598 14.2494 5.0254
N 7.79650870555573 13.92893212056046 5.0417000000000005
H 7.588078584709243 14.312879753348996 4.112
H 7.712706187830711 14.718045362131624 5.694100000000001
X 6.840690338945362 14.801554691402194 5.0254
N 16.03989375907016 9.874077991109305 5.0417000000000005
H 16.248327770456847 9.490132470368073 4.112
H 16.123704272894955 9.084965598751646 5.694100000000001
X 16.995817361807845 9.00135879117424 5.0254
0 1 A
0 4 A
1 3 S
1 5 A
2 7 A
2 4 A
4 6 S
5 7 A
8 12 A
8 9 A
9 11 S
9 13 A
10 12 A
10 15 A
12 14 S
13 15 A
2 19 S
5 17 S
7 8 S
10 18 S
13 16 S
20 21 S
20 22 S
0 21 S
23 22 S
24 25 S
24 26 S
25 15 S
27 26 S
