12
Properties=species:S:1:pos:R:3 mol=T to=T xyz=T file=T pbc="F F F"
C -0.34890000 0.25920000 0.00070000
C 0.77710000 -0.78580000 -0.00010000
C 2.10100000 -0.02290000 0.00050000
C 1.76140000 1.47530000 0.00160000
N 0.25240000 1.65490000 0.00200000
C 0.43439757 -2.28709871 -0.00118065
H 3.18990000 -0.36060000 0.00020000
N 0.09858202 -3.75950518 -0.00146203
F -1.4399866250668518 -0.6804808748720107 0.0007
X -2.219284157068771 -0.8748647288748985 0.00015551405686810348
F 3.121500070713642 1.9481614677098835 0.0016
X 3.6804152778978265 2.5249791021240915 0.0021444868483317153
0 4 A
0 1 A
4 3 A
1 5 S
1 2 A
5 7 T
2 6 S
2 3 A
9 8 S
11 10 S
