18
Properties=species:S:1:pos:R:3 mol=T to=T xyz=T file=T pbc="F F F"
C -0.34890000 0.25920000 0.00070000
C 0.77710000 -0.78580000 -0.00010000
C 2.10100000 -0.02290000 0.00050000
C 1.76140000 1.47530000 0.00160000
N 0.25240000 1.65490000 0.00200000
H 0.52340000 -1.89720000 -0.00090000
C 3.55111501 -0.47262343 0.00010048
O 3.87722180 -1.63781726 0.54591890
O 4.42127117 0.25857467 -0.47411386
H 4.88784469 -1.67884685 0.62198042
N -0.9055087215883891 -0.6040123904646756 0.017
H -1.3365414062267573 -0.6752143902500828 -0.9127000000000001
H -1.678552533331936 -0.4247755774908675 0.6694
X -2.219284157068771 -0.8748647288748985 0.00015551405686810348
N 2.5954150094527204 2.07477298855543 0.0179
H 3.0225864764967696 1.9832118737553426 -0.9118
H 3.2491521679801587 1.6249393553525857 0.6703
X 3.6804152778978265 2.5249791021240915 0.0021444868483317153
0 4 A
0 1 A
4 3 A
1 5 S
1 2 A
2 6 S
2 3 A
6 7 S
6 8 D
7 9 S
10 11 S
10 12 S
0 11 S
13 12 S
14 15 S
14 16 S
3 15 S
17 16 S
