15
mol to xyz file
C -0.3489 0.2592 0.0007
C 0.7771 -0.7858 -0.0001
C 2.1010 -0.0229 0.0005
C 1.7614 1.4753 0.0016
N 0.2524 1.6549 0.0020
H 0.5234 -1.8972 -0.0009
H 3.1899 -0.3606 0.0002
N -0.9055087215883891 -0.6040123904646756 0.017
H -1.3365414062267573 -0.6752143902500828 -0.9127000000000001
H -1.678552533331936 -0.4247755774908675 0.6694
X -2.219284157068771 -0.8748647288748985 0.00015551405686810348
N 2.5954150094527204 2.07477298855543 0.0179
H 3.0225864764967696 1.9832118737553426 -0.9118
H 3.2491521679801587 1.6249393553525857 0.6703
X 3.6804152778978265 2.5249791021240915 0.0021444868483317153
0 4 A
0 1 A
1 5 S
1 2 A
2 6 S
2 3 A
3 4 A
7 8 S
7 9 S
0 8 S
10 9 S
11 12 S
11 13 S
3 12 S
14 13 S
