19
Properties=species:S:1:pos:R:3 mol=T to=T xyz=T file=T pbc="F F F"
C -0.34890000 0.25920000 0.00070000
C 0.77710000 -0.78580000 -0.00010000
C 2.10100000 -0.02290000 0.00050000
C 1.76140000 1.47530000 0.00160000
N 0.25240000 1.65490000 0.00200000
N 0.45672392 -2.18929222 -0.00111025
H 3.18990000 -0.36060000 0.00020000
H -0.56303015 -2.52602285 0.27952941
H 1.22952525 -2.93469239 -0.28264138
O -1.1257520050252003 -1.625188965232053 0.328
C -1.296612084542999 -0.3368655457339935 -0.0121
O -2.36590383613627 0.11383169185970851 -0.2985
H -2.056865325754104 -2.0271905497577793 0.5208
X -2.219284157068771 -0.8748647288748985 0.00015551405686810348
O 3.2229108071392027 2.8960065040378034 0.3289
C 2.867913757378525 1.6458275189875764 -0.011200000000000002
O 3.6701673340859937 0.8074349804591888 -0.2976
H 4.237098336406388 2.895034146632617 0.5217
X 3.6804152778978265 2.5249791021240915 0.0021444868483317153
0 4 A
0 1 A
4 3 A
1 5 S
1 2 A
5 7 S
5 8 S
2 6 S
2 3 A
9 10 S
10 11 A
9 12 S
0 10 S
13 12 S
14 15 S
15 16 A
14 17 S
3 15 S
18 17 S
