16
Properties=species:S:1:pos:R:3 mol=T to=T xyz=T file=T pbc="F F F"
C -0.34890000 0.25920000 0.00070000
C 0.77710000 -0.78580000 -0.00010000
C 2.10100000 -0.02290000 0.00050000
C 1.76140000 1.47530000 0.00160000
N 0.25240000 1.65490000 0.00200000
C 0.43439757 -2.28709871 -0.00118065
H 3.18990000 -0.36060000 0.00020000
N 0.09858202 -3.75950518 -0.00146203
N -0.9055087215883891 -0.6040123904646756 0.017
H -1.3365414062267573 -0.6752143902500828 -0.9127000000000001
H -1.678552533331936 -0.4247755774908675 0.6694
X -2.219284157068771 -0.8748647288748985 0.00015551405686810348
N 2.5954150094527204 2.07477298855543 0.0179
H 3.0225864764967696 1.9832118737553426 -0.9118
H 3.2491521679801587 1.6249393553525857 0.6703
X 3.6804152778978265 2.5249791021240915 0.0021444868483317153
0 4 A
0 1 A
4 3 A
1 5 S
1 2 A
5 7 T
2 6 S
2 3 A
8 9 S
8 10 S
0 9 S
11 10 S
12 13 S
12 14 S
3 13 S
15 14 S
