17
mol to xyz file
C -0.3489 0.2592 0.0007
C 0.7771 -0.7858 -0.0001
C 2.1010 -0.0229 0.0005
C 1.7614 1.4753 0.0016
N 0.2524 1.6549 0.0020
H 0.5234 -1.8972 -0.0009
H 3.1899 -0.3606 0.0002
O -1.1257520050252003 -1.625188965232053 0.328
C -1.296612084542999 -0.3368655457339935 -0.0121
O -2.36590383613627 0.11383169185970851 -0.2985
H -2.056865325754104 -2.0271905497577793 0.5208
X -2.219284157068771 -0.8748647288748985 0.00015551405686810348
O 3.2229108071392027 2.8960065040378034 0.3289
C 2.867913757378525 1.6458275189875764 -0.011200000000000002
O 3.6701673340859937 0.8074349804591888 -0.2976
H 4.237098336406388 2.895034146632617 0.5217
X 3.6804152778978265 2.5249791021240915 0.0021444868483317153
0 4 A
0 1 A
1 5 S
1 2 A
2 6 S
2 3 A
3 4 A
7 8 S
8 9 A
7 10 S
0 8 S
11 10 S
12 13 S
13 14 A
12 15 S
3 13 S
16 15 S
