12
Properties=species:S:1:pos:R:3 mol=T to=T xyz=T file=T pbc="F F F"
C -0.34830000 0.25980000 0.00050000
C 0.77780000 -0.78520000 -0.00010000
C 2.10170000 -0.02220000 0.00040000
C 1.76200000 1.47600000 0.00110000
O 0.25300000 1.65550000 0.00140000
H 0.64940000 -1.91790000 -0.00070000
C 3.51251853 -0.63939933 0.00026492
N 4.89601672 -1.24494477 0.00091488
F -1.4393292226760508 -0.6799475220860609 0.0005
X -2.2186243580975678 -0.8742342184880415 7.653321410108207e-05
F 3.1221001433866507 1.948861258679131 0.0011
X 3.6810153424303347 2.525679124559878 0.00150249270729543
0 4 A
0 1 A
4 3 A
1 5 S
1 2 A
2 6 S
2 3 A
6 7 T
9 8 S
11 10 S
