15
mol to xyz file
C -0.3483 0.2598 0.0005
C 0.7778 -0.7852 -0.0001
C 2.1017 -0.0222 0.0004
C 1.7620 1.4760 0.0011
O 0.2530 1.6555 0.0014
H 0.6494 -1.9179 -0.0007
H 3.1461 -0.4791 0.0003
N -0.9048509414693358 -0.6034496449750766 0.016800000000000002
H -1.3358788592568331 -0.6746804956493055 -0.9129
H -1.677906748645503 -0.4242645758671722 0.6692
X -2.2186243580975678 -0.8742342184880415 7.653321410108207e-05
N 2.596004187970409 2.075488043623739 0.0174
H 3.023177307754181 1.9839346398956428 -0.9123
H 3.2497494665329816 1.6256662113866351 0.6698000000000001
X 3.6810153424303347 2.525679124559878 0.00150249270729543
0 4 A
0 1 A
1 5 S
1 2 A
2 6 S
2 3 A
3 4 A
7 8 S
7 9 S
0 8 S
10 9 S
11 12 S
11 13 S
3 12 S
14 13 S
