19
Properties=species:S:1:pos:R:3 mol=T to=T xyz=T file=T pbc="F F F"
C -0.34830000 0.25980000 0.00050000
C 0.77780000 -0.78520000 -0.00010000
C 2.10170000 -0.02220000 0.00040000
C 1.76200000 1.47600000 0.00110000
O 0.25300000 1.65550000 0.00140000
N 0.61564973 -2.21563315 -0.00085771
H 3.14610000 -0.47910000 0.00030000
H -0.39034206 -2.66026175 0.14857594
H 1.49669979 -2.87390191 -0.15097802
O -1.125143232960293 -1.62459258155083 0.32780000000000004
C -1.2960093097761725 -0.33626995744087856 -0.012299999999999998
O -2.3653031594075182 0.11442230246667456 -0.29869999999999997
H -2.056254682313549 -2.026598500516309 0.5206000000000001
X -2.2186243580975678 -0.8742342184880415 7.653321410108207e-05
O 3.2234500302824345 2.896769023799249 0.3284
C 2.868506461475448 1.6465748536950366 -0.011700000000000002
O 3.67079590252157 0.8082166350403253 -0.2981
H 4.237637600217515 2.895840051692183 0.5212000000000001
X 3.6810153424303347 2.525679124559878 0.00150249270729543
0 4 A
0 1 A
4 3 A
1 5 S
1 2 A
5 7 S
5 8 S
2 6 S
2 3 A
9 10 S
10 11 A
9 12 S
0 10 S
13 12 S
14 15 S
15 16 A
14 17 S
3 15 S
18 17 S
