20
Properties=species:S:1:pos:R:3 mol=T to=T xyz=T file=T pbc="F F F"
C -0.34830000 0.25980000 0.00050000
C 0.77780000 -0.78520000 -0.00010000
C 2.10170000 -0.02220000 0.00040000
C 1.76200000 1.47600000 0.00110000
O 0.25300000 1.65550000 0.00140000
H 0.64940000 -1.91790000 -0.00070000
C 3.47622420 -0.62352143 0.00026839
F 3.78501060 -1.06328619 1.27389128
F 4.42639232 0.30053737 -0.39609415
F 3.50727857 -1.69735291 -0.86987870
O -1.125143232960293 -1.62459258155083 0.32780000000000004
C -1.2960093097761725 -0.33626995744087856 -0.012299999999999998
O -2.3653031594075182 0.11442230246667456 -0.29869999999999997
H -2.056254682313549 -2.026598500516309 0.5206000000000001
X -2.2186243580975678 -0.8742342184880415 7.653321410108207e-05
O 3.2234500302824345 2.896769023799249 0.3284
C 2.868506461475448 1.6465748536950366 -0.011700000000000002
O 3.67079590252157 0.8082166350403253 -0.2981
H 4.237637600217515 2.895840051692183 0.5212000000000001
X 3.6810153424303347 2.525679124559878 0.00150249270729543
0 4 A
0 1 A
4 3 A
1 5 S
1 2 A
2 6 S
2 3 A
6 7 S
6 8 S
6 9 S
10 11 S
11 12 A
10 13 S
0 11 S
14 13 S
15 16 S
16 17 A
15 18 S
3 16 S
19 18 S
