18
Properties=species:S:1:pos:R:3 mol=T to=T xyz=T file=T pbc="F F F"
C -0.34830000 0.25980000 0.00050000
C 0.77780000 -0.78520000 -0.00010000
C 2.10170000 -0.02220000 0.00040000
C 1.76200000 1.47600000 0.00110000
O 0.25300000 1.65550000 0.00140000
C 0.60679021 -2.29378870 -0.00089911
H 3.14610000 -0.47910000 0.00030000
O -0.46472404 -2.83330208 0.56718766
O 1.47694038 -3.01074177 -0.49639748
H -0.31468388 -3.83400908 0.63719376
N -0.9048509414693358 -0.6034496449750766 0.016800000000000002
H -1.3358788592568331 -0.6746804956493055 -0.9129
H -1.677906748645503 -0.4242645758671722 0.6692
X -2.2186243580975678 -0.8742342184880415 7.653321410108207e-05
N 2.596004187970409 2.075488043623739 0.0174
H 3.023177307754181 1.9839346398956428 -0.9123
H 3.2497494665329816 1.6256662113866351 0.6698000000000001
X 3.6810153424303347 2.525679124559878 0.00150249270729543
0 4 A
0 1 A
4 3 A
1 5 S
1 2 A
5 7 S
5 8 D
2 6 S
2 3 A
7 9 S
10 11 S
10 12 S
0 11 S
13 12 S
14 15 S
14 16 S
3 15 S
17 16 S
