18
Properties=species:S:1:pos:R:3 mol=T to=T xyz=T file=T pbc="F F F"
C -0.44030000 0.13580000 0.00020000
C 0.77900000 -0.81450000 -0.00010000
C 2.12950000 -0.03520000 -0.00030000
C 1.91870000 1.49530000 0.00030000
S 0.15350000 1.83220000 0.00050000
C 0.56963952 -2.31824633 -0.00023318
H 3.18530000 -0.46510000 -0.00070000
O -0.51514001 -2.83007135 0.56829878
O 1.42114850 -3.05732406 -0.49561002
H -0.39060960 -3.83424479 0.63869260
N -1.051464358680048 -0.6896859336652598 0.0165
H -1.4861939982643353 -0.7329183343262895 -0.9132
H -1.8113273122056617 -0.46092653635155123 0.6689
X -2.355387734285272 -0.986107404586514 0.00014532311855520834
N 2.7123191574600414 2.1473103779177247 0.0166
H 3.1445061527756764 2.0834879595990525 -0.9131
H 3.3937050590387807 1.7405723502761863 0.669
X 3.8494039430119713 2.5897879406527973 0.00035467040958230684
0 4 A
0 1 A
4 3 A
1 2 A
1 5 S
2 6 S
2 3 A
5 7 S
5 8 D
7 9 S
10 11 S
10 12 S
0 11 S
13 12 S
14 15 S
14 16 S
3 15 S
17 16 S
