19
Properties=species:S:1:pos:R:3 mol=T to=T xyz=T file=T pbc="F F F"
C -0.44030000 0.13580000 0.00020000
C 0.77900000 -0.81450000 -0.00010000
C 2.12950000 -0.03520000 -0.00030000
C 1.91870000 1.49530000 0.00030000
S 0.15350000 1.83220000 0.00050000
N 0.58048587 -2.24034164 -0.00022628
H 3.18530000 -0.46510000 -0.00070000
H -0.43162335 -2.65983045 0.17784271
H 1.43961287 -2.92021169 -0.17849742
O -1.3016908109977796 -1.7114754750519987 0.3275
C -1.4140330269469426 -0.41673626327395386 -0.0126
O -2.46181764771394 0.08192217542347706 -0.299
H -2.2500537888739944 -2.070898557496293 0.5203000000000001
X -2.355387734285272 -0.986107404586514 0.00014532311855520834
O 3.289392895306988 3.00381642243462 0.3276
C 3.0125245697988188 1.7340470219802295 -0.012499999999999997
O 3.865174570994496 0.9469632745549554 -0.29889999999999994
H 4.301692749531473 3.0656734764954567 0.5204000000000001
X 3.8494039430119713 2.5897879406527973 0.00035467040958230684
0 4 A
0 1 A
4 3 A
1 2 A
1 5 S
2 6 S
2 3 A
5 7 S
5 8 S
9 10 S
10 11 A
9 12 S
0 10 S
13 12 S
14 15 S
15 16 A
14 17 S
3 15 S
18 17 S
