15
mol to xyz file
C -0.4403 0.1358 0.0002
C 0.7790 -0.8145 -0.0001
C 2.1295 -0.0352 -0.0003
C 1.9187 1.4953 0.0003
S 0.1535 1.8322 0.0005
H 0.6218 -1.9436 -0.0002
H 3.1853 -0.4651 -0.0007
N -1.051464358680048 -0.6896859336652598 0.0165
H -1.4861939982643353 -0.7329183343262895 -0.9132
H -1.8113273122056617 -0.46092653635155123 0.6689
X -2.355387734285272 -0.986107404586514 0.00014532311855520834
N 2.7123191574600414 2.1473103779177247 0.0166
H 3.1445061527756764 2.0834879595990525 -0.9131
H 3.3937050590387807 1.7405723502761863 0.669
X 3.8494039430119713 2.5897879406527973 0.00035467040958230684
0 4 A
0 1 A
1 2 A
1 5 S
2 6 S
2 3 A
3 4 A
7 8 S
7 9 S
0 8 S
10 9 S
11 12 S
11 13 S
3 12 S
14 13 S
