12
Properties=species:S:1:pos:R:3 mol=T to=T xyz=T file=T pbc="F F F"
C -0.44030000 0.13580000 0.00020000
C 0.77900000 -0.81450000 -0.00010000
C 2.12950000 -0.03520000 -0.00030000
C 1.91870000 1.49530000 0.00030000
S 0.15350000 1.83220000 0.00050000
C 0.56665183 -2.33970562 -0.00023508
H 3.18530000 -0.46510000 -0.00070000
N 0.35863076 -3.83552638 0.00042754
F -1.5899482328792454 -0.7312519653617232 0.0002
X -2.355387734285272 -0.986107404586514 0.00014532311855520834
F 3.245286253820991 2.055334892817572 0.0003
X 3.8494039430119713 2.5897879406527973 0.00035467040958230684
0 4 A
0 1 A
4 3 A
1 2 A
1 5 S
2 6 S
2 3 A
5 7 T
9 8 S
11 10 S
