18
mol to xyz file
C -3.4251 0.0054 1.2142
C -2.4946 -0.4363 0.0462
C -1.0841 -0.2734 0.5859
C -1.1627 0.2357 1.9735
O -2.5876 0.4380 2.4332
C 0.2481 0.4387 2.4986
C 1.1788 0.0074 1.3269
O 0.3411 -0.4365 0.1118
H -2.8053 -0.8017 -0.9912
H 0.5593 0.8256 3.5288
N -4.409572034662559 -0.2874544228236301 1.2305
H -4.7831029647369165 -0.06088535106451794 0.30079999999999985
H -4.879664143408423 0.3518702046504469 1.8828999999999998
X -5.674254319099704 0.0034600012778624716 1.1532548981074768
N 2.163470271223054 0.2995871950813692 1.3432
H 2.536847573393517 0.0727650395852476 0.41349999999999987
H 2.633129012245204 -0.3400558592712043 1.9956
X 3.42794677489496 0.009862856140977753 1.3876706303173634
0 4 A
0 1 A
1 2 A
1 8 S
2 7 A
2 3 A
3 4 A
3 5 A
5 9 S
5 6 A
6 7 A
10 11 S
10 12 S
0 11 S
13 12 S
14 15 S
14 16 S
6 15 S
17 16 S
