14
mol to xyz file
C -3.4251 0.0054 1.2142
C -2.4946 -0.4363 0.0462
C -1.0841 -0.2734 0.5859
C -1.1627 0.2357 1.9735
O -2.5876 0.4380 2.4332
C 0.2481 0.4387 2.4986
C 1.1788 0.0074 1.3269
O 0.3411 -0.4365 0.1118
H -2.8053 -0.8017 -0.9912
H 0.5593 0.8256 3.5288
F -4.865034514333631 0.01306579616011043 1.2142
X -5.674254319099704 0.0034600012778624716 1.1532548981074768
F 2.6187289933943316 -0.00124083227396511 1.3269
X 3.42794677489496 0.009862856140977753 1.3876706303173634
0 4 A
0 1 A
1 2 A
1 8 S
2 7 A
2 3 A
3 4 A
3 5 A
5 9 S
5 6 A
6 7 A
11 10 S
13 12 S
