20
mol to xyz file
C -3.4251 0.0054 1.2142
C -2.4946 -0.4363 0.0462
C -1.0841 -0.2734 0.5859
C -1.1627 0.2357 1.9735
O -2.5876 0.4380 2.4332
C 0.2481 0.4387 2.4986
C 1.1788 0.0074 1.3269
O 0.3411 -0.4365 0.1118
H -2.8053 -0.8017 -0.9912
H 0.5593 0.8256 3.5288
O -5.2695675361834375 -0.8619870635220486 1.5415
C -4.526837287227474 0.20446601903049103 1.2014
O -5.012374208815859 1.258395213888701 0.915
H -6.228166889769626 -0.5308306513779658 1.7343000000000002
X -5.674254319099704 0.0034600012778624716 1.1532548981074768
O 3.0238551737751855 0.8735363724757321 1.6542000000000001
C 2.280402073446992 -0.1924129169430458 1.3141
O 2.7652243521884756 -1.2466710485388688 1.0277
H 3.9822297932930297 0.5417301358495532 1.847
X 3.42794677489496 0.009862856140977753 1.3876706303173634
0 4 A
0 1 A
1 2 A
1 8 S
2 7 A
2 3 A
3 4 A
3 5 A
5 9 S
5 6 A
6 7 A
10 11 S
11 12 A
10 13 S
0 11 S
14 13 S
15 16 S
16 17 A
15 18 S
6 16 S
19 18 S
