18
Properties=species:S:1:pos:R:3 mol=T to=T xyz=T file=T pbc="F F F"
C -3.42510000 0.00540000 1.21420000
C -2.49460000 -0.43630000 0.04620000
C -1.08410000 -0.27340000 0.58590000
C -1.16270000 0.23570000 1.97350000
O -2.58760000 0.43800000 2.43320000
C 0.24810000 0.43870000 2.49860000
C 1.17880000 0.00740000 1.32690000
O 0.34110000 -0.43650000 0.11180000
F -2.86318131 -0.86977155 -1.18446061
H 0.55930000 0.82560000 3.52880000
N -4.409572034662559 -0.2874544228236301 1.2305
H -4.7831029647369165 -0.06088535106451794 0.30079999999999985
H -4.879664143408423 0.3518702046504469 1.8828999999999998
X -5.674254319099704 0.0034600012778624716 1.1532548981074768
N 2.163470271223054 0.2995871950813692 1.3432
H 2.536847573393517 0.0727650395852476 0.41349999999999987
H 2.633129012245204 -0.3400558592712043 1.9956
X 3.42794677489496 0.009862856140977753 1.3876706303173634
0 4 A
0 1 A
4 3 A
1 2 A
1 8 S
2 7 A
2 3 A
7 6 A
3 5 A
5 9 S
5 6 A
10 11 S
10 12 S
0 11 S
13 12 S
14 15 S
14 16 S
6 15 S
17 16 S
