17
Properties=species:S:1:pos:R:3 mol=T to=T xyz=T file=T pbc="F F F"
C -3.42510000 0.00540000 1.21420000
C -2.49460000 -0.43630000 0.04620000
C -1.08410000 -0.27340000 0.58590000
C -1.16270000 0.23570000 1.97350000
O -2.58760000 0.43800000 2.43320000
C 0.24810000 0.43870000 2.49860000
C 1.17880000 0.00740000 1.32690000
O 0.34110000 -0.43650000 0.11180000
H -2.80530000 -0.80170000 -0.99120000
C 0.65636230 0.94627290 3.85011615
F 0.18940073 2.23671757 4.01611845
F 0.14218565 0.15167831 4.85910039
F 2.03576738 0.94815790 3.94216204
F -4.865034514333631 0.01306579616011043 1.2142
X -5.674254319099704 0.0034600012778624716 1.1532548981074768
F 2.6187289933943316 -0.00124083227396511 1.3269
X 3.42794677489496 0.009862856140977753 1.3876706303173634
0 4 A
0 1 A
4 3 A
1 2 A
1 8 S
2 7 A
2 3 A
7 6 A
3 5 A
5 9 S
5 6 A
9 10 S
9 11 S
9 12 S
14 13 S
16 15 S
