18
mol to xyz file
C -2.0597 0.0002 0.4835
C -1.1545 0.0002 -0.7624
C 0.3101 0.0002 -0.2865
C 0.3101 0.0002 1.2535
S -1.1545 0.0002 1.7294
C 1.7747 0.0002 1.7294
C 2.6799 0.0002 0.4835
S 1.7747 0.0002 -0.7624
H -1.3915 0.0002 -1.8775
H 2.2384 0.0002 2.7708
N -3.042869099135345 -0.2969992976192813 0.49979999999999997
H -3.4173969851287733 -0.07208206258982924 -0.42990000000000006
H -3.5157800773729493 0.34024302415662844 1.1522000000000001
X -4.30559999732915 3.6704854850342836e-05 0.4053632951451496
N 3.6630998121730842 0.29729767643455474 0.49979999999999997
H 4.037604448894597 0.07234173169406168 -0.42990000000000006
H 4.135944923011384 -0.3399935216502111 1.1522000000000001
X 4.925899997328925 0.00043670218388737524 0.5615632978161126
0 4 A
0 1 A
1 8 S
1 2 A
2 7 A
2 3 A
3 5 A
3 4 A
5 6 A
5 9 S
6 7 A
10 11 S
10 12 S
0 11 S
13 12 S
14 15 S
14 16 S
6 15 S
17 16 S
