21
Properties=species:S:1:pos:R:3 mol=T to=T xyz=T file=T pbc="F F F"
C -2.05970000 0.00020000 0.48350000
C -1.15450000 0.00020000 -0.76240000
C 0.31010000 0.00020000 -0.28650000
C 0.31010000 0.00020000 1.25350000
S -1.15450000 0.00020000 1.72940000
C 1.77470000 0.00020000 1.72940000
C 2.67990000 0.00020000 0.48350000
S 1.77470000 0.00020000 -0.76240000
C -1.46640272 0.00020000 -2.22992204
H 2.23840000 0.00020000 2.77080000
F -2.75445312 0.46231182 -2.42546276
F -0.58972720 0.81167307 -2.92760311
F -1.36811434 -1.28875888 -2.71998200
N -3.042869099135345 -0.2969992976192813 0.49979999999999997
H -3.4173969851287733 -0.07208206258982924 -0.42990000000000006
H -3.5157800773729493 0.34024302415662844 1.1522000000000001
X -4.30559999732915 3.6704854850342836e-05 0.4053632951451496
N 3.6630998121730842 0.29729767643455474 0.49979999999999997
H 4.037604448894597 0.07234173169406168 -0.42990000000000006
H 4.135944923011384 -0.3399935216502111 1.1522000000000001
X 4.925899997328925 0.00043670218388737524 0.5615632978161126
0 4 A
0 1 A
4 3 A
1 8 S
1 2 A
8 10 S
8 11 S
8 12 S
2 7 A
2 3 A
7 6 A
3 5 A
5 6 A
5 9 S
13 14 S
13 15 S
0 14 S
16 15 S
17 18 S
17 19 S
6 18 S
20 19 S
