20
mol to xyz file
C -2.0597 0.0002 0.4835
C -1.1545 0.0002 -0.7624
C 0.3101 0.0002 -0.2865
C 0.3101 0.0002 1.2535
S -1.1545 0.0002 1.7294
C 1.7747 0.0002 1.7294
C 2.6799 0.0002 0.4835
S 1.7747 0.0002 -0.7624
H -1.3915 0.0002 -1.8775
H 2.2384 0.0002 2.7708
O -3.901715130129288 -0.8723829876721084 0.8108
C -3.161994057197613 0.19615954038225597 0.4707
O -3.6504999711797557 1.2487158676182246 0.18430000000000002
H -4.861244172056971 -0.5439300873997193 1.0036
X -4.30559999732915 3.6704854850342836e-05 0.4053632951451496
O 4.521997546238969 0.8726089867375086 0.8108
C 3.7821755419105796 -0.19586366237969002 0.4707
O 4.270582029075511 -1.2484661292660315 0.18430000000000002
H 5.481495558172731 0.5440654506647987 1.0036
X 4.925899997328925 0.00043670218388737524 0.5615632978161126
0 4 A
0 1 A
1 8 S
1 2 A
2 7 A
2 3 A
3 5 A
3 4 A
5 6 A
5 9 S
6 7 A
10 11 S
11 12 A
10 13 S
0 11 S
14 13 S
15 16 S
16 17 A
15 18 S
6 16 S
19 18 S
