20
Properties=species:S:1:pos:R:3 mol=T to=T xyz=T file=T pbc="F F F"
C -2.05970000 0.00020000 0.48350000
C -1.15450000 0.00020000 -0.76240000
C 0.31010000 0.00020000 -0.28650000
C 0.31010000 0.00020000 1.25350000
S -1.15450000 0.00020000 1.72940000
C 1.77470000 0.00020000 1.72940000
C 2.67990000 0.00020000 0.48350000
S 1.77470000 0.00020000 -0.76240000
N -1.45377979 0.00020000 -2.17053034
H 2.23840000 0.00020000 2.77080000
O -0.81848816 0.79429960 -2.98294107
O -2.36464031 -0.79382342 -2.65431084
N -3.042869099135345 -0.2969992976192813 0.49979999999999997
H -3.4173969851287733 -0.07208206258982924 -0.42990000000000006
H -3.5157800773729493 0.34024302415662844 1.1522000000000001
X -4.30559999732915 3.6704854850342836e-05 0.4053632951451496
N 3.6630998121730842 0.29729767643455474 0.49979999999999997
H 4.037604448894597 0.07234173169406168 -0.42990000000000006
H 4.135944923011384 -0.3399935216502111 1.1522000000000001
X 4.925899997328925 0.00043670218388737524 0.5615632978161126
0 4 A
0 1 A
4 3 A
1 8 S
1 2 A
8 10 D
8 11 S
2 7 A
2 3 A
7 6 A
3 5 A
5 6 A
5 9 S
12 13 S
12 14 S
0 13 S
15 14 S
16 17 S
16 18 S
6 17 S
19 18 S
