14
mol to xyz file
C -2.0597 0.0002 0.4835
C -1.1545 0.0002 -0.7624
C 0.3101 0.0002 -0.2865
C 0.3101 0.0002 1.2535
S -1.1545 0.0002 1.7294
C 1.7747 0.0002 1.7294
C 2.6799 0.0002 0.4835
S 1.7747 0.0002 -0.7624
H -1.3915 0.0002 -1.8775
H 2.2384 0.0002 2.7708
F -3.49965491815244 0.00013926615119458743 0.4835
X -4.30559999732915 3.6704854850342836e-05 0.4053632951451496
F 4.119854918150006 0.00013920845826613412 0.4835
X 4.925899997328925 0.00043670218388737524 0.5615632978161126
0 4 A
0 1 A
1 8 S
1 2 A
2 7 A
2 3 A
3 5 A
3 4 A
5 6 A
5 9 S
6 7 A
11 10 S
13 12 S
