17
Properties=species:S:1:pos:R:3 mol=T to=T xyz=T file=T pbc="F F F"
C -2.05970000 0.00020000 0.48350000
C -1.15450000 0.00020000 -0.76240000
C 0.31010000 0.00020000 -0.28650000
C 0.31010000 0.00020000 1.25350000
S -1.15450000 0.00020000 1.72940000
C 1.77470000 0.00020000 1.72940000
C 2.67990000 0.00020000 0.48350000
S 1.77470000 0.00020000 -0.76240000
C -1.46640272 0.00020000 -2.22992204
H 2.23840000 0.00020000 2.77080000
F -2.75445312 0.46231182 -2.42546276
F -0.58972720 0.81167307 -2.92760311
F -1.36811434 -1.28875888 -2.71998200
F -3.49965491815244 0.00013926615119458743 0.4835
X -4.30559999732915 3.6704854850342836e-05 0.4053632951451496
F 4.119854918150006 0.00013920845826613412 0.4835
X 4.925899997328925 0.00043670218388737524 0.5615632978161126
0 4 A
0 1 A
4 3 A
1 8 S
1 2 A
8 10 S
8 11 S
8 12 S
2 7 A
2 3 A
7 6 A
3 5 A
5 6 A
5 9 S
14 13 S
16 15 S
