21
Properties=species:S:1:pos:R:3 mol=T to=T xyz=T file=T pbc="F F F"
C -2.05970000 0.00020000 0.48350000
C -1.15450000 0.00020000 -0.76240000
C 0.31010000 0.00020000 -0.28650000
C 0.31010000 0.00020000 1.25350000
S -1.15450000 0.00020000 1.72940000
C 1.77470000 0.00020000 1.72940000
C 2.67990000 0.00020000 0.48350000
S 1.77470000 0.00020000 -0.76240000
C -1.47463852 0.00020000 -2.26867198
H 2.23840000 0.00020000 2.77080000
N -1.78833357 0.00098183 -3.74594913
O -3.901715130129288 -0.8723829876721084 0.8108
C -3.161994057197613 0.19615954038225597 0.4707
O -3.6504999711797557 1.2487158676182246 0.18430000000000002
H -4.861244172056971 -0.5439300873997193 1.0036
X -4.30559999732915 3.6704854850342836e-05 0.4053632951451496
O 4.521997546238969 0.8726089867375086 0.8108
C 3.7821755419105796 -0.19586366237969002 0.4707
O 4.270582029075511 -1.2484661292660315 0.18430000000000002
H 5.481495558172731 0.5440654506647987 1.0036
X 4.925899997328925 0.00043670218388737524 0.5615632978161126
0 4 A
0 1 A
4 3 A
1 8 S
1 2 A
8 10 T
2 7 A
2 3 A
7 6 A
3 5 A
5 6 A
5 9 S
11 12 S
12 13 A
11 14 S
0 12 S
15 14 S
16 17 S
17 18 A
16 19 S
6 17 S
20 19 S
