20
mol to xyz file
C 10.7489 15.7742 1.7697
C 8.2371 14.7712 1.7704
C 12.3559 13.7688 1.7702
S 10.7022 13.0556 1.7707
C 9.7660 14.5866 1.7702
C 12.2356 15.3147 1.7698
C 6.1189 18.2297 1.7699
S 7.7728 18.9425 1.7695
C 8.7086 17.4113 1.7700
C 7.7256 16.2239 1.7703
C 6.2388 16.6838 1.7706
C 10.2375 17.2267 1.7697
H 13.1262 16.0263 1.7692
H 7.5237 13.8821 1.7707
H 5.3480 15.9724 1.7705
H 10.9510 18.1159 1.7698
F 13.527075886262875 12.931054684622845 1.7702
X 14.218313074233672 12.509021330366332 1.7701956152312457
F 4.947645372106103 19.067335222896656 1.7699
X 4.256604899861913 19.489664003667663 1.7694782463349028
0 4 A
0 5 A
0 11 A
1 9 A
1 4 A
1 13 S
2 3 A
2 5 A
3 4 A
5 12 S
6 7 A
6 10 A
7 8 A
8 11 A
8 9 A
9 10 A
10 14 S
11 15 S
17 16 S
19 18 S
