26
mol to xyz file
C 10.7489 15.7742 1.7697
C 8.2371 14.7712 1.7704
C 12.3559 13.7688 1.7702
S 10.7022 13.0556 1.7707
C 9.7660 14.5866 1.7702
C 12.2356 15.3147 1.7698
C 6.1189 18.2297 1.7699
S 7.7728 18.9425 1.7695
C 8.7086 17.4113 1.7700
C 7.7256 16.2239 1.7703
C 6.2388 16.6838 1.7706
C 10.2375 17.2267 1.7697
H 13.1262 16.0263 1.7692
H 7.5237 13.8821 1.7707
H 5.3480 15.9724 1.7705
H 10.9510 18.1159 1.7698
O 14.362757114602093 13.412506116287467 2.0975
C 13.140689642401068 12.97032799223767 1.7574
O 12.928865069385564 11.829432203715863 1.471
H 14.954417619845062 12.588785813918006 2.2903000000000002
X 14.218313074233672 12.509021330366332 1.7701956152312457
O 4.112004478112693 18.585777483462063 2.0972
C 5.3340242634115915 19.028087379731673 1.7571
O 5.545725813098339 20.169006002535347 1.4707000000000001
H 3.5202551550513963 19.409433982651198 2.29
X 4.256604899861913 19.489664003667663 1.7694782463349028
0 4 A
0 5 A
0 11 A
1 9 A
1 4 A
1 13 S
2 3 A
2 5 A
3 4 A
5 12 S
6 7 A
6 10 A
7 8 A
8 11 A
8 9 A
9 10 A
10 14 S
11 15 S
16 17 S
17 18 A
16 19 S
17 2 S
20 19 S
21 22 S
22 23 A
21 24 S
22 6 S
25 24 S
