20
Properties=species:S:1:pos:R:3 mol=T to=T xyz=T file=T pbc="F F F"
C 10.74890000 15.77420000 1.76970000
C 8.23710000 14.77120000 1.77040000
C 12.35590000 13.76880000 1.77020000
S 10.70220000 13.05560000 1.77070000
C 9.76600000 14.58660000 1.77020000
C 12.23560000 15.31470000 1.76980000
C 6.11890000 18.22970000 1.76990000
S 7.77280000 18.94250000 1.76950000
C 8.70860000 17.41130000 1.77000000
C 7.72560000 16.22390000 1.77030000
C 6.23880000 16.68380000 1.77060000
C 10.23750000 17.22670000 1.76970000
H 13.12620000 16.02630000 1.76920000
H 7.52370000 13.88210000 1.77070000
Br 4.61572688 15.38760084 1.77041780
H 10.95100000 18.11590000 1.76980000
F 13.527075886262875 12.931054684622845 1.7702
X 14.218313074233672 12.509021330366332 1.7701956152312457
F 4.947645372106103 19.067335222896656 1.7699
X 4.256604899861913 19.489664003667663 1.7694782463349028
0 4 A
0 5 A
0 11 A
4 1 A
4 3 A
5 2 A
5 12 S
11 8 A
11 15 S
1 9 A
1 13 S
9 8 A
9 10 A
2 3 A
6 7 A
6 10 A
7 8 A
10 14 S
17 16 S
19 18 S
