27
Properties=species:S:1:pos:R:3 mol=T to=T xyz=T file=T pbc="F F F"
C 10.74890000 15.77420000 1.76970000
C 8.23710000 14.77120000 1.77040000
C 12.35590000 13.76880000 1.77020000
S 10.70220000 13.05560000 1.77070000
C 9.76600000 14.58660000 1.77020000
C 12.23560000 15.31470000 1.76980000
C 6.11890000 18.22970000 1.76990000
S 7.77280000 18.94250000 1.76950000
C 8.70860000 17.41130000 1.77000000
C 7.72560000 16.22390000 1.77030000
C 6.23880000 16.68380000 1.77060000
C 10.23750000 17.22670000 1.76970000
H 13.12620000 16.02630000 1.76920000
H 7.52370000 13.88210000 1.77070000
C 5.05244033 15.73636369 1.77046682
H 10.95100000 18.11590000 1.76980000
O 3.92775442 16.09260055 2.37883920
O 5.14920363 14.63032189 1.23754088
H 3.32902228 15.27604191 2.43866584
N 13.324410610166693 13.426840794838714 1.7865
H 13.493335820537057 13.023947293648476 0.8567999999999999
H 13.3287529653499 12.633302066135782 2.4389
X 14.218313074233672 12.509021330366332 1.7701956152312457
N 5.150367287611173 18.57159659991398 1.7862
H 4.98141603455487 18.97447918093568 0.8564999999999999
H 5.145973638087835 19.36513504626921 2.4386
X 4.256604899861913 19.489664003667663 1.7694782463349028
0 4 A
0 5 A
0 11 A
4 1 A
4 3 A
5 2 A
5 12 S
11 8 A
11 15 S
1 9 A
1 13 S
9 8 A
9 10 A
2 3 A
6 7 A
6 10 A
7 8 A
10 14 S
14 16 S
14 17 D
16 18 S
19 20 S
19 21 S
20 2 S
22 21 S
23 24 S
23 25 S
24 6 S
26 25 S
