27
Properties=species:S:1:pos:R:3 mol=T to=T xyz=T file=T pbc="F F F"
C 10.74890000 15.77420000 1.76970000
C 8.23710000 14.77120000 1.77040000
C 12.35590000 13.76880000 1.77020000
S 10.70220000 13.05560000 1.77070000
C 9.76600000 14.58660000 1.77020000
C 12.23560000 15.31470000 1.76980000
C 6.11890000 18.22970000 1.76990000
S 7.77280000 18.94250000 1.76950000
C 8.70860000 17.41130000 1.77000000
C 7.72560000 16.22390000 1.77030000
C 6.23880000 16.68380000 1.77060000
C 10.23750000 17.22670000 1.76970000
S 13.64957025 16.44447906 1.76884740
H 7.52370000 13.88210000 1.77070000
H 5.34800000 15.97240000 1.77050000
H 10.95100000 18.11590000 1.76980000
H 13.71931936 17.10803559 0.52670050
O 14.362757114602093 13.412506116287467 2.0975
C 13.140689642401068 12.97032799223767 1.7574
O 12.928865069385564 11.829432203715863 1.471
H 14.954417619845062 12.588785813918006 2.2903000000000002
X 14.218313074233672 12.509021330366332 1.7701956152312457
O 4.112004478112693 18.585777483462063 2.0972
C 5.3340242634115915 19.028087379731673 1.7571
O 5.545725813098339 20.169006002535347 1.4707000000000001
H 3.5202551550513963 19.409433982651198 2.29
X 4.256604899861913 19.489664003667663 1.7694782463349028
0 4 A
0 5 A
0 11 A
4 1 A
4 3 A
5 2 A
5 12 S
11 8 A
11 15 S
1 9 A
1 13 S
9 8 A
9 10 A
2 3 A
12 16 S
6 7 A
6 10 A
7 8 A
10 14 S
17 18 S
18 19 A
17 20 S
18 2 S
21 20 S
22 23 S
23 24 A
22 25 S
23 6 S
26 25 S
