26
Properties=species:S:1:pos:R:3 mol=T to=T xyz=T file=T pbc="F F F"
C -1.34510000 -0.01040000 1.43340000
C -0.55700000 -0.01200000 0.10040000
C 1.00040000 -0.01220000 0.10050000
C 1.78720000 -0.01030000 1.43400000
C 0.97650000 -0.00600000 2.73260000
C -0.53590000 -0.00750000 2.73240000
C -1.01460000 0.00930000 4.19140000
N 0.21940000 0.02050000 5.07720000
C 1.45430000 0.00810000 4.19210000
H -2.48440000 -0.01130000 1.47160000
N -1.26380852 -0.01326283 -1.15372104
H 1.57050000 -0.01380000 -0.88670000
H 2.92710000 -0.01200000 1.42330000
H 0.10960000 0.03520000 6.18170000
O -0.89162701 0.76943201 -2.12483921
O -2.28668668 -0.79704290 -1.33700427
O -2.8949669224143815 -0.7772373780627772 4.5187
C -2.1066620318281193 0.25598370160884015 4.1786
O -2.5460109249792158 1.3299880778042574 3.8922
H -3.8382943344342246 -0.4047985458608375 4.7115
X -3.202482441173862 0.009143064617479034 4.145730203958674
O 3.2984789508564205 0.8761004649872668 4.5194
C 2.5561034334422437 -0.19059958242251657 4.1793000000000005
O 3.041990853333698 -1.2443672347971877 3.8929
H 4.257188390373232 0.5452628906681426 4.7122
X 3.6420445701640327 0.007810029161034296 4.147902989614153
0 9 S
0 5 A
0 1 A
5 4 A
5 6 A
1 2 A
1 10 S
2 11 S
2 3 A
10 14 D
10 15 S
3 12 S
3 4 A
4 8 A
8 7 A
6 7 A
7 13 S
16 17 S
17 18 A
16 19 S
6 17 S
20 19 S
21 22 S
22 23 A
21 24 S
8 22 S
25 24 S
