23
Properties=species:S:1:pos:R:3 mol=T to=T xyz=T file=T pbc="F F F"
C -1.34510000 -0.01040000 1.43340000
C -0.55700000 -0.01200000 0.10040000
C 1.00040000 -0.01220000 0.10050000
C 1.78720000 -0.01030000 1.43400000
C 0.97650000 -0.00600000 2.73260000
C -0.53590000 -0.00750000 2.73240000
C -1.01460000 0.00930000 4.19140000
N 0.21940000 0.02050000 5.07720000
C 1.45430000 0.00810000 4.19210000
H -2.48440000 -0.01130000 1.47160000
H -1.11670000 -0.01300000 -0.89270000
H 1.57050000 -0.01380000 -0.88670000
H 2.92710000 -0.01200000 1.42330000
O 0.08125910 0.03899427 6.46678677
H 0.96600284 0.01252671 6.96062945
N -1.9905514184496118 -0.31080580879795067 4.2077
H -2.3702357706813704 -0.09470700576945147 3.278
H -2.478232658408721 0.31520503630934127 4.8601
X -3.202482441173862 0.009143064617479034 4.145730203958674
N 2.403783467438441 0.39980147441779534 4.2084
H 2.7984680317431234 0.21249692375331405 3.2787
H 2.9366090583927136 -0.18826268842859867 4.8608
X 3.6420445701640327 0.007810029161034296 4.147902989614153
0 9 S
0 5 A
0 1 A
5 4 A
5 6 A
1 2 A
1 10 S
2 11 S
2 3 A
3 12 S
3 4 A
4 8 A
8 7 A
6 7 A
7 13 S
13 14 S
15 16 S
15 17 S
6 16 S
18 17 S
19 20 S
19 21 S
8 20 S
22 21 S
