20
Properties=species:S:1:pos:R:3 mol=T to=T xyz=T file=T pbc="F F F"
C -1.34510000 -0.01040000 1.43340000
C -0.55700000 -0.01200000 0.10040000
C 1.00040000 -0.01220000 0.10050000
C 1.78720000 -0.01030000 1.43400000
C 0.97650000 -0.00600000 2.73260000
C -0.53590000 -0.00750000 2.73240000
C -1.01460000 0.00930000 4.19140000
N 0.21940000 0.02050000 5.07720000
C 1.45430000 0.00810000 4.19210000
H -2.48440000 -0.01130000 1.47160000
N -1.26381412 -0.01326284 -1.15373096
H 1.57050000 -0.01380000 -0.88670000
H 2.92710000 -0.01200000 1.42330000
H 0.10960000 0.03520000 6.18170000
H -2.14704319 0.64427224 -1.29372567
H -0.92554381 -0.67190098 -1.98069656
F -2.439541895234057 0.21669036912733772 4.1914
X -3.202482441173862 0.009143064617479034 4.145730203958674
F 2.879266896806263 -0.19911851511467052 4.1921
X 3.6420445701640327 0.007810029161034296 4.147902989614153
0 9 S
0 5 A
0 1 A
5 4 A
5 6 A
1 2 A
1 10 S
2 11 S
2 3 A
10 14 S
10 15 S
3 12 S
3 4 A
4 8 A
8 7 A
6 7 A
7 13 S
17 16 S
19 18 S
