18
mol to xyz file
C -1.3451 -0.0104 1.4334
C -0.5570 -0.0120 0.1004
C 1.0004 -0.0122 0.1005
C 1.7872 -0.0103 1.4340
C 0.9765 -0.0060 2.7326
C -0.5359 -0.0075 2.7324
C -1.0146 0.0093 4.1914
N 0.2194 0.0205 5.0772
C 1.4543 0.0081 4.1921
H -2.4844 -0.0113 1.4716
H -1.1167 -0.0130 -0.8927
H 1.5705 -0.0138 -0.8867
H 2.9271 -0.0120 1.4233
H 0.1096 0.0352 6.1817
F -2.439541895234057 0.21669036912733772 4.1914
X -3.202482441173862 0.009143064617479034 4.145730203958674
F 2.879266896806263 -0.19911851511467052 4.1921
X 3.6420445701640327 0.007810029161034296 4.147902989614153
0 9 S
0 5 A
0 1 A
1 2 A
1 10 S
2 11 S
2 3 A
3 12 S
3 4 A
4 5 A
4 8 A
5 6 A
6 7 A
7 8 A
7 13 S
15 14 S
17 16 S
