21
Properties=species:S:1:pos:R:3 mol=T to=T xyz=T file=T pbc="F F F"
C -1.34510000 -0.01040000 1.43340000
C -0.55700000 -0.01200000 0.10040000
C 1.00040000 -0.01220000 0.10050000
C 1.78720000 -0.01030000 1.43400000
C 0.97650000 -0.00600000 2.73260000
C -0.53590000 -0.00750000 2.73240000
C -1.01460000 0.00930000 4.19140000
N 0.21940000 0.02050000 5.07720000
C 1.45430000 0.00810000 4.19210000
H -2.48440000 -0.01130000 1.47160000
H -1.11670000 -0.01300000 -0.89270000
H 1.57050000 -0.01380000 -0.88670000
H 2.92710000 -0.01200000 1.42330000
C 0.06584468 0.04105795 6.62184348
H 0.30941744 -0.81601286 6.97917692
H 0.63922674 0.71654199 6.99149641
H -0.84608488 0.23553138 6.85023706
F -2.439541895234057 0.21669036912733772 4.1914
X -3.202482441173862 0.009143064617479034 4.145730203958674
F 2.879266896806263 -0.19911851511467052 4.1921
X 3.6420445701640327 0.007810029161034296 4.147902989614153
0 9 S
0 5 A
0 1 A
5 4 A
5 6 A
1 2 A
1 10 S
2 11 S
2 3 A
3 12 S
3 4 A
4 8 A
8 7 A
6 7 A
7 13 S
13 14 S
13 15 S
13 16 S
18 17 S
20 19 S
