21
mol to xyz file
C -1.3429 -0.0074 1.4259
C -0.5561 -0.0039 0.0923
C 1.0006 -0.0037 0.0923
C 1.7877 -0.0069 1.4257
C 0.9785 -0.0090 2.7245
C -0.5336 -0.0091 2.7247
C -1.0111 0.0065 4.1845
O 0.2226 0.0195 5.0679
C 1.4563 0.0069 4.1842
H -2.4822 -0.0086 1.4642
H -1.1167 -0.0015 -0.9003
H 1.5706 -0.0011 -0.8950
H 2.9277 -0.0076 1.4147
N -1.986638296324314 -0.3148626182440246 4.2008
H -2.3666006798254005 -0.09925304720374481 3.2711
H -2.47512546549085 0.31051954936204346 4.8532
X -3.1971718813672405 0.0060249809983947186 4.139196443193292
N 2.404644345378713 0.4013513944559212 4.2005
H 2.799870053406231 0.21519141026450853 3.2708
H 2.9391718851962607 -0.18516619196122933 4.8529
X 3.642402268605562 0.007102747023626814 4.138328628783339
0 9 S
0 5 A
0 1 A
1 2 A
1 10 S
2 11 S
2 3 A
3 12 S
3 4 A
4 5 A
4 8 A
5 6 A
6 7 A
7 8 A
13 14 S
13 15 S
6 14 S
16 15 S
17 18 S
17 19 S
8 18 S
20 19 S
