26
Properties=species:S:1:pos:R:3 mol=T to=T xyz=T file=T pbc="F F F"
C -1.34290000 -0.00740000 1.42590000
C -0.55610000 -0.00390000 0.09230000
C 1.00060000 -0.00370000 0.09230000
C 1.78770000 -0.00690000 1.42570000
C 0.97850000 -0.00900000 2.72450000
C -0.53360000 -0.00910000 2.72470000
C -1.01110000 0.00650000 4.18450000
O 0.22260000 0.01950000 5.06790000
C 1.45630000 0.00690000 4.18420000
H -2.48220000 -0.00860000 1.46420000
H -1.11670000 -0.00150000 -0.90030000
C 1.75970542 -0.00023741 -1.22255049
H 2.92770000 -0.00760000 1.41470000
O 1.21096762 0.55538234 -2.29591603
O 2.89229095 -0.48053959 -1.27965990
H 1.92540949 0.63184105 -3.01184500
O -2.891896990148351 -0.7790084288846973 4.5118
C -2.1030268968617642 0.2537811798537006 4.1717
O -2.5417880892180094 1.3280257823917474 3.8853
H -3.8350204833019452 -0.4060535165135621 4.7046
X -3.1971718813672405 0.0060249809983947186 4.139196443193292
O 3.2999938542323903 0.875930368782192 4.5115
C 2.5582142423282264 -0.19118415523259602 4.1714
O 3.044690152943997 -1.2446802579261738 3.885
H 4.258887928698293 0.5456283192060809 4.7043
X 3.642402268605562 0.007102747023626814 4.138328628783339
0 9 S
0 5 A
0 1 A
5 4 A
5 6 A
1 2 A
1 10 S
2 11 S
2 3 A
11 13 S
11 14 D
3 12 S
3 4 A
4 8 A
8 7 A
6 7 A
13 15 S
16 17 S
17 18 A
16 19 S
6 17 S
20 19 S
21 22 S
22 23 A
21 24 S
8 22 S
25 24 S
