23
Properties=species:S:1:pos:R:3 mol=T to=T xyz=T file=T pbc="F F F"
C -1.34290000 -0.00740000 1.42590000
C -0.55610000 -0.00390000 0.09230000
C 1.00060000 -0.00370000 0.09230000
C 1.78770000 -0.00690000 1.42570000
C 0.97850000 -0.00900000 2.72450000
C -0.53360000 -0.00910000 2.72470000
C -1.01110000 0.00650000 4.18450000
O 0.22260000 0.01950000 5.06790000
C 1.45630000 0.00690000 4.18420000
H -2.48220000 -0.00860000 1.46420000
N -1.26404518 -0.00086920 -1.16118981
H 1.57060000 -0.00110000 -0.89500000
H 2.92770000 -0.00760000 1.41470000
H -2.14735611 0.65719283 -1.29815936
H -0.92656509 -0.65672378 -1.99068667
N -1.986638296324314 -0.3148626182440246 4.2008
H -2.3666006798254005 -0.09925304720374481 3.2711
H -2.47512546549085 0.31051954936204346 4.8532
X -3.1971718813672405 0.0060249809983947186 4.139196443193292
N 2.404644345378713 0.4013513944559212 4.2005
H 2.799870053406231 0.21519141026450853 3.2708
H 2.9391718851962607 -0.18516619196122933 4.8529
X 3.642402268605562 0.007102747023626814 4.138328628783339
0 9 S
0 5 A
0 1 A
5 4 A
5 6 A
1 2 A
1 10 S
2 11 S
2 3 A
10 13 S
10 14 S
3 12 S
3 4 A
4 8 A
8 7 A
6 7 A
15 16 S
15 17 S
6 16 S
18 17 S
19 20 S
19 21 S
8 20 S
22 21 S
