17
mol to xyz file
C -1.3429 -0.0074 1.4259
C -0.5561 -0.0039 0.0923
C 1.0006 -0.0037 0.0923
C 1.7877 -0.0069 1.4257
C 0.9785 -0.0090 2.7245
C -0.5336 -0.0091 2.7247
C -1.0111 0.0065 4.1845
O 0.2226 0.0195 5.0679
C 1.4563 0.0069 4.1842
H -2.4822 -0.0086 1.4642
H -1.1167 -0.0015 -0.9003
H 1.5706 -0.0011 -0.8950
H 2.9277 -0.0076 1.4147
F -2.4356111148027138 0.2168289181342655 4.1845
X -3.1971718813672405 0.0060249809983947186 4.139196443193292
F 2.8807034724157314 -0.2041566695700617 4.1842
X 3.642402268605562 0.007102747023626814 4.138328628783339
0 9 S
0 5 A
0 1 A
1 2 A
1 10 S
2 11 S
2 3 A
3 12 S
3 4 A
4 5 A
4 8 A
5 6 A
6 7 A
7 8 A
14 13 S
16 15 S
