17
Properties=species:S:1:pos:R:3 mol=T to=T xyz=T file=T pbc="F F F"
C -1.34290000 -0.00740000 1.42590000
C -0.55610000 -0.00390000 0.09230000
C 1.00060000 -0.00370000 0.09230000
C 1.78770000 -0.00690000 1.42570000
C 0.97850000 -0.00900000 2.72450000
C -0.53360000 -0.00910000 2.72470000
C -1.01110000 0.00650000 4.18450000
O 0.22260000 0.01950000 5.06790000
C 1.45630000 0.00690000 4.18420000
H -2.48220000 -0.00860000 1.46420000
H -1.11670000 -0.00150000 -0.90030000
Br 2.03914137 0.00103721 -1.70656298
H 2.92770000 -0.00760000 1.41470000
F -2.4356111148027138 0.2168289181342655 4.1845
X -3.1971718813672405 0.0060249809983947186 4.139196443193292
F 2.8807034724157314 -0.2041566695700617 4.1842
X 3.642402268605562 0.007102747023626814 4.138328628783339
0 9 S
0 5 A
0 1 A
5 4 A
5 6 A
1 2 A
1 10 S
2 11 S
2 3 A
3 12 S
3 4 A
4 8 A
8 7 A
6 7 A
14 13 S
16 15 S
