23
mol to xyz file
C -1.3429 -0.0074 1.4259
C -0.5561 -0.0039 0.0923
C 1.0006 -0.0037 0.0923
C 1.7877 -0.0069 1.4257
C 0.9785 -0.0090 2.7245
C -0.5336 -0.0091 2.7247
C -1.0111 0.0065 4.1845
O 0.2226 0.0195 5.0679
C 1.4563 0.0069 4.1842
H -2.4822 -0.0086 1.4642
H -1.1167 -0.0015 -0.9003
H 1.5706 -0.0011 -0.8950
H 2.9277 -0.0076 1.4147
O -2.891896990148351 -0.7790084288846973 4.5118
C -2.1030268968617642 0.2537811798537006 4.1717
O -2.5417880892180094 1.3280257823917474 3.8853
H -3.8350204833019452 -0.4060535165135621 4.7046
X -3.1971718813672405 0.0060249809983947186 4.139196443193292
O 3.2999938542323903 0.875930368782192 4.5115
C 2.5582142423282264 -0.19118415523259602 4.1714
O 3.044690152943997 -1.2446802579261738 3.885
H 4.258887928698293 0.5456283192060809 4.7043
X 3.642402268605562 0.007102747023626814 4.138328628783339
0 9 S
0 5 A
0 1 A
1 2 A
1 10 S
2 11 S
2 3 A
3 12 S
3 4 A
4 5 A
4 8 A
5 6 A
6 7 A
7 8 A
13 14 S
14 15 A
13 16 S
6 14 S
17 16 S
18 19 S
19 20 A
18 21 S
8 19 S
22 21 S
