23
mol to xyz file
C -1.3577 -0.0108 1.3962
C -0.5701 -0.0155 0.0658
C 0.9815 -0.0151 0.0658
C 1.7699 -0.0110 1.3959
C 0.9844 -0.0051 2.7131
C -0.5718 -0.0049 2.7132
C -1.1814 0.0068 4.1389
S 0.2064 0.0190 5.2668
C 1.5938 0.0078 4.1387
H -2.4976 -0.0117 1.4126
H -1.1292 -0.0194 -0.9276
H 1.5514 -0.0178 -0.9215
H 2.9098 -0.0124 1.3829
O -3.0465195049208993 -0.8152401707724626 4.4662
C -2.2779419310126396 0.23273831797875938 4.1261
O -2.737570641719448 1.2982214470305513 3.8396999999999997
H -3.996737347134737 -0.4607499137293695 4.659
X -3.3975204530716754 0.006571138526067548 4.126059744204918
O 3.43152222911924 0.8893882364239052 4.466
C 2.6970399733439203 -0.18276204033360188 4.125900000000001
O 3.190691748658904 -1.232914779095143 3.8395
H 4.392647382930274 0.5656356631341843 4.6588
X 3.809893205354089 0.008043280428951033 4.12574882547018
0 9 S
0 5 A
0 1 A
1 2 A
1 10 S
2 11 S
2 3 A
3 12 S
3 4 A
4 5 A
4 8 A
5 6 A
6 7 A
7 8 A
13 14 S
14 15 A
13 16 S
6 14 S
17 16 S
18 19 S
19 20 A
18 21 S
8 19 S
22 21 S
