24
Properties=species:S:1:pos:R:3 mol=T to=T xyz=T file=T pbc="F F F"
C -1.35770000 -0.01080000 1.39620000
C -0.57010000 -0.01550000 0.06580000
C 0.98150000 -0.01510000 0.06580000
C 1.76990000 -0.01100000 1.39590000
C 0.98440000 -0.00510000 2.71310000
C -0.57180000 -0.00490000 2.71320000
C -1.18140000 0.00680000 4.13890000
S 0.20640000 0.01900000 5.26680000
C 1.59380000 0.00780000 4.13870000
H -2.49760000 -0.01170000 1.41260000
C -1.30594773 -0.02063290 -1.24164256
H 1.55140000 -0.01780000 -0.92150000
H 2.90980000 -0.01240000 1.38290000
F -2.63706639 -0.31894481 -1.01805711
F -1.22280683 1.21043665 -1.86723246
F -0.75951343 -0.98141792 -2.07202565
N -2.164123918228116 -0.29186804405958694 4.1552
H -2.5389874636128154 -0.06751068995321201 3.2255
H -2.6379865534745957 0.3446669297770919 4.8076
X -3.3975204530716754 0.006571138526067548 4.126059744204918
N 2.5572892593926135 0.36366141549074077 4.155
H 2.9446809045422366 0.16170445654089804 3.2253000000000003
H 3.0677135781273304 -0.24394831521162405 4.8074
X 3.809893205354089 0.008043280428951033 4.12574882547018
0 9 S
0 5 A
0 1 A
5 4 A
5 6 A
1 2 A
1 10 S
2 11 S
2 3 A
10 13 S
10 14 S
10 15 S
3 12 S
3 4 A
4 8 A
8 7 A
6 7 A
16 17 S
16 18 S
6 17 S
19 18 S
20 21 S
20 22 S
8 21 S
23 22 S
