24
Properties=species:S:1:pos:R:3 mol=T to=T xyz=T file=T pbc="F F F"
C -1.35770000 -0.01080000 1.39620000
C -0.57010000 -0.01550000 0.06580000
C 0.98150000 -0.01510000 0.06580000
C 1.76990000 -0.01100000 1.39590000
C 0.98440000 -0.00510000 2.71310000
C -0.57180000 -0.00490000 2.71320000
C -1.18140000 0.00680000 4.13890000
S 0.20640000 0.01900000 5.26680000
C 1.59380000 0.00780000 4.13870000
H -2.49760000 -0.01170000 1.41260000
O -1.25506543 -0.02027797 -1.15123569
H 1.55140000 -0.01780000 -0.92150000
H 2.90980000 -0.01240000 1.38290000
H -2.23036114 -0.28219088 -1.06433044
O -3.0465195049208993 -0.8152401707724626 4.4662
C -2.2779419310126396 0.23273831797875938 4.1261
O -2.737570641719448 1.2982214470305513 3.8396999999999997
H -3.996737347134737 -0.4607499137293695 4.659
X -3.3975204530716754 0.006571138526067548 4.126059744204918
O 3.43152222911924 0.8893882364239052 4.466
C 2.6970399733439203 -0.18276204033360188 4.125900000000001
O 3.190691748658904 -1.232914779095143 3.8395
H 4.392647382930274 0.5656356631341843 4.6588
X 3.809893205354089 0.008043280428951033 4.12574882547018
0 9 S
0 5 A
0 1 A
5 4 A
5 6 A
1 2 A
1 10 S
2 11 S
2 3 A
10 13 S
3 12 S
3 4 A
4 8 A
8 7 A
6 7 A
14 15 S
15 16 A
14 17 S
6 15 S
18 17 S
19 20 S
20 21 A
19 22 S
8 20 S
23 22 S
