19
Properties=species:S:1:pos:R:3 mol=T to=T xyz=T file=T pbc="F F F"
C -1.35770000 -0.01080000 1.39620000
C -0.57010000 -0.01550000 0.06580000
C 0.98150000 -0.01510000 0.06580000
C 1.76990000 -0.01100000 1.39590000
C 0.98440000 -0.00510000 2.71310000
C -0.57180000 -0.00490000 2.71320000
C -1.18140000 0.00680000 4.13890000
S 0.20640000 0.01900000 5.26680000
C 1.59380000 0.00780000 4.13870000
N -2.79714506 -0.01193650 1.41690962
H -1.12920000 -0.01940000 -0.92760000
H 1.55140000 -0.01780000 -0.92150000
H 2.90980000 -0.01240000 1.38290000
H -3.36569717 -0.14955465 0.47358877
H -3.33842869 0.12490676 2.37627871
F -2.615578739953527 0.13564685430895862 4.1389
X -3.3975204530716754 0.006571138526067548 4.126059744204918
F 3.0279678113865947 -0.12116844103339725 4.1387
X 3.809893205354089 0.008043280428951033 4.12574882547018
0 9 S
0 5 A
0 1 A
9 13 S
9 14 S
5 4 A
5 6 A
1 2 A
1 10 S
2 11 S
2 3 A
3 12 S
3 4 A
4 8 A
8 7 A
6 7 A
16 15 S
18 17 S
