21
mol to xyz file
C -1.3577 -0.0108 1.3962
C -0.5701 -0.0155 0.0658
C 0.9815 -0.0151 0.0658
C 1.7699 -0.0110 1.3959
C 0.9844 -0.0051 2.7131
C -0.5718 -0.0049 2.7132
C -1.1814 0.0068 4.1389
S 0.2064 0.0190 5.2668
C 1.5938 0.0078 4.1387
H -2.4976 -0.0117 1.4126
H -1.1292 -0.0194 -0.9276
H 1.5514 -0.0178 -0.9215
H 2.9098 -0.0124 1.3829
N -2.164123918228116 -0.29186804405958694 4.1552
H -2.5389874636128154 -0.06751068995321201 3.2255
H -2.6379865534745957 0.3446669297770919 4.8076
X -3.3975204530716754 0.006571138526067548 4.126059744204918
N 2.5572892593926135 0.36366141549074077 4.155
H 2.9446809045422366 0.16170445654089804 3.2253000000000003
H 3.0677135781273304 -0.24394831521162405 4.8074
X 3.809893205354089 0.008043280428951033 4.12574882547018
0 9 S
0 5 A
0 1 A
1 2 A
1 10 S
2 11 S
2 3 A
3 12 S
3 4 A
4 5 A
4 8 A
5 6 A
6 7 A
7 8 A
13 14 S
13 15 S
6 14 S
16 15 S
17 18 S
17 19 S
8 18 S
20 19 S
