29
Properties=species:S:1:pos:R:3 mol=T to=T xyz=T file=T pbc="F F F"
C 2.26090000 8.91300000 1.68020000
C 3.22910000 6.68780000 1.68020000
C 3.54650000 9.47360000 1.68060000
C 2.11030000 7.51560000 1.68010000
C 4.67010000 8.65220000 1.68020000
H 3.09420000 5.61310000 1.68030000
H 3.67350000 10.54930000 1.68100000
H 1.12540000 7.06600000 1.67980000
C 6.91930000 6.98750000 1.67990000
C 5.95140000 9.21290000 1.68010000
C 5.63360000 6.42730000 1.68020000
C 7.07020000 8.38490000 1.67980000
C 4.51030000 7.24870000 1.68020000
C 6.14090609 10.71927721 1.68010000
H 5.50630000 5.35160000 1.68030000
H 8.05530000 8.83450000 1.67940000
O 7.24307273 11.24226836 2.20321473
O 5.25868175 11.44974893 1.22755948
H 7.10869437 12.24427935 2.28533562
O 0.22545217146771224 8.806355978492961 2.0075
C 1.3159101889898352 9.513372040560663 1.6674
O 1.2643150701544292 10.672617827144492 1.381
H -0.5371170861397072 9.47498548528433 2.2003
X 0.2734478934232005 9.934421019705926 1.6802
O 8.954711288989413 7.094839157135022 2.0072
C 7.864494793693348 6.387450725377499 1.6671
O 7.916485812694644 5.228222627053788 1.3807
H 9.717508851064107 6.426470120379949 2.2
X 8.906442594023437 5.9658398581261 1.6800214588086428
0 2 A
0 3 A
2 6 S
2 4 A
3 1 A
3 7 S
1 5 S
1 12 A
12 4 A
12 10 A
4 9 A
9 13 S
9 11 A
8 10 A
8 11 A
10 14 S
11 15 S
13 16 S
13 17 D
16 18 S
19 20 S
20 21 A
19 22 S
20 0 S
23 22 S
24 25 S
25 26 A
24 27 S
25 8 S
28 27 S
