26
mol to xyz file
C 2.2609 8.9130 1.6802
C 3.2291 6.6878 1.6802
C 3.5465 9.4736 1.6806
C 2.1103 7.5156 1.6801
C 4.6701 8.6522 1.6802
H 3.0942 5.6131 1.6803
H 3.6735 10.5493 1.6810
H 1.1254 7.0660 1.6798
C 6.9193 6.9875 1.6799
C 5.9514 9.2129 1.6801
C 5.6336 6.4273 1.6802
C 7.0702 8.3849 1.6798
C 4.5103 7.2487 1.6802
H 6.0866 10.2876 1.6801
H 5.5063 5.3516 1.6803
H 8.0553 8.8345 1.6794
O 0.22545217146771224 8.806355978492961 2.0075
C 1.3159101889898352 9.513372040560663 1.6674
O 1.2643150701544292 10.672617827144492 1.381
H -0.5371170861397072 9.47498548528433 2.2003
X 0.2734478934232005 9.934421019705926 1.6802
O 8.954711288989413 7.094839157135022 2.0072
C 7.864494793693348 6.387450725377499 1.6671
O 7.916485812694644 5.228222627053788 1.3807
H 9.717508851064107 6.426470120379949 2.2
X 8.906442594023437 5.9658398581261 1.6800214588086428
0 2 A
0 3 A
1 5 S
1 3 A
1 12 A
2 6 S
2 4 A
3 7 S
4 12 A
4 9 A
8 10 A
8 11 A
9 13 S
9 11 A
10 14 S
10 12 A
11 15 S
16 17 S
17 18 A
16 19 S
17 0 S
20 19 S
21 22 S
22 23 A
21 24 S
22 8 S
25 24 S
