25
Properties=species:S:1:pos:R:3 mol=T to=T xyz=T file=T pbc="F F F"
C 2.26090000 8.91300000 1.68020000
C 3.22910000 6.68780000 1.68020000
C 3.54650000 9.47360000 1.68060000
C 2.11030000 7.51560000 1.68010000
C 4.67010000 8.65220000 1.68020000
H 3.09420000 5.61310000 1.68030000
C 3.72705268 11.00289538 1.68116867
H 1.12540000 7.06600000 1.67980000
C 6.91930000 6.98750000 1.67990000
C 5.95140000 9.21290000 1.68010000
C 5.63360000 6.42730000 1.68020000
C 7.07020000 8.38490000 1.67980000
C 4.51030000 7.24870000 1.68020000
H 6.08660000 10.28760000 1.68010000
H 5.50630000 5.35160000 1.68030000
H 8.05530000 8.83450000 1.67940000
N 3.90484457 12.50260938 1.68212488
N 1.2407889861305719 9.032676310865131 1.6965
H 0.9870755476682842 9.388328375590818 0.7667999999999998
H 1.0613435650065943 9.805671725364881 2.3489
X 0.2734478934232005 9.934421019705926 1.6802
N 7.939443455591962 6.868100544335874 1.6962
H 8.193253406123658 6.512517348710578 0.7664999999999998
H 8.119098655504487 6.095153858500176 2.3486
X 8.906442594023437 5.9658398581261 1.6800214588086428
0 2 A
0 3 A
2 6 S
2 4 A
3 1 A
3 7 S
1 5 S
1 12 A
12 4 A
12 10 A
6 16 T
4 9 A
9 13 S
9 11 A
8 10 A
8 11 A
10 14 S
11 15 S
17 18 S
17 19 S
18 0 S
20 19 S
21 22 S
21 23 S
22 8 S
24 23 S
