20
mol to xyz file
C 2.2609 8.9130 1.6802
C 3.2291 6.6878 1.6802
C 3.5465 9.4736 1.6806
C 2.1103 7.5156 1.6801
C 4.6701 8.6522 1.6802
H 3.0942 5.6131 1.6803
H 3.6735 10.5493 1.6810
H 1.1254 7.0660 1.6798
C 6.9193 6.9875 1.6799
C 5.9514 9.2129 1.6801
C 5.6336 6.4273 1.6802
C 7.0702 8.3849 1.6798
C 4.5103 7.2487 1.6802
H 6.0866 10.2876 1.6801
H 5.5063 5.3516 1.6803
H 8.0553 8.8345 1.6794
F 0.930235636701322 9.463274951498725 1.6802
X 0.2734478934232005 9.934421019705926 1.6802
F 8.250147226639326 6.437667453358377 1.6799
X 8.906442594023437 5.9658398581261 1.6800214588086428
0 2 A
0 3 A
1 5 S
1 3 A
1 12 A
2 6 S
2 4 A
3 7 S
4 12 A
4 9 A
8 10 A
8 11 A
9 13 S
9 11 A
10 14 S
10 12 A
11 15 S
17 16 S
19 18 S
