22
Properties=species:S:1:pos:R:3 mol=T to=T xyz=T file=T pbc="F F F"
C 2.26090000 8.91300000 1.68020000
C 3.22910000 6.68780000 1.68020000
C 3.54650000 9.47360000 1.68060000
C 2.11030000 7.51560000 1.68010000
C 4.67010000 8.65220000 1.68020000
H 3.09420000 5.61310000 1.68030000
H 3.67350000 10.54930000 1.68100000
H 1.12540000 7.06600000 1.67980000
C 6.91930000 6.98750000 1.67990000
C 5.95140000 9.21290000 1.68010000
C 5.63360000 6.42730000 1.68020000
C 7.07020000 8.38490000 1.67980000
C 4.51030000 7.24870000 1.68020000
H 6.08660000 10.28760000 1.68010000
N 5.46441807 4.99769274 1.68033290
H 8.05530000 8.83450000 1.67940000
O 6.16914349 4.24715709 2.47673677
O 4.60387961 4.43226025 0.88412733
F 0.930235636701322 9.463274951498725 1.6802
X 0.2734478934232005 9.934421019705926 1.6802
F 8.250147226639326 6.437667453358377 1.6799
X 8.906442594023437 5.9658398581261 1.6800214588086428
0 2 A
0 3 A
2 6 S
2 4 A
3 1 A
3 7 S
1 5 S
1 12 A
12 4 A
12 10 A
4 9 A
9 13 S
9 11 A
8 10 A
8 11 A
10 14 S
11 15 S
14 16 D
14 17 S
19 18 S
21 20 S
