26
Properties=species:S:1:pos:R:3 mol=T to=T xyz=T file=T pbc="F F F"
C -1.35420000 0.00000000 1.17030000
C -0.58420000 0.00000000 -0.16340000
C 0.95580000 0.00000000 -0.16340000
C 1.72580000 0.00000000 1.17030000
C 0.95580000 0.00000000 2.50400000
C -0.58420000 0.00000000 2.50400000
N -1.00570000 0.00080000 3.97200000
C 0.18590000 0.00020000 4.78710000
C 1.37740000 0.00150000 3.97180000
H -1.15420000 0.00000000 -1.15060000
N 1.67562925 -0.00000000 -1.41009375
H -2.08280000 0.00180000 4.24010000
H 0.09890000 -0.00120000 5.92380000
H 2.48360000 0.00340000 4.24710000
O 2.68009789 0.80682668 -1.59522690
O 1.33370639 -0.80675178 -2.37260296
O 3.567856338535181 0.8724959917743819 1.4976
C 2.828084801166214 -0.19601159944748436 1.1575
O 3.316541004339609 -1.2485909967289581 0.8711
H 4.527369867177449 0.5439977751088055 1.6904
X 3.9758 0.0 1.1703
O -3.196256338535182 -0.872495991774381 1.4976
C -2.456484801166213 0.19601159944748472 1.1575
O -2.944941004339608 1.2485909967289588 0.8711
H -4.155769867177449 -0.543997775108804 1.6904
X -3.6042 0.0 1.1703
0 5 A
0 1 A
5 4 A
5 6 A
1 2 A
1 9 S
2 10 S
2 3 A
10 14 D
10 15 S
3 4 A
4 8 A
8 7 A
8 13 S
6 11 S
6 7 A
7 12 S
16 17 S
17 18 A
16 19 S
3 17 S
20 19 S
21 22 S
22 23 A
21 24 S
0 22 S
25 24 S
