18
mol to xyz file
C -1.3542 0.0000 1.1703
C -0.5842 0.0000 -0.1634
C 0.9558 0.0000 -0.1634
C 1.7258 0.0000 1.1703
C 0.9558 0.0000 2.5040
C -0.5842 0.0000 2.5040
N -1.0057 0.0008 3.9720
C 0.1859 0.0002 4.7871
C 1.3774 0.0015 3.9718
H -1.1542 0.0000 -1.1506
H 1.5258 0.0000 -1.1506
H -2.0828 0.0018 4.2401
H 0.0989 -0.0012 5.9238
H 2.4836 0.0034 4.2471
F 3.165754919433244 2.9847434855399877e-15 1.1703
X 3.9758 0.0 1.1703
F -2.794154919433244 -2.7947710504679523e-15 1.1703
X -3.6042 0.0 1.1703
0 5 A
0 1 A
1 2 A
1 9 S
2 10 S
2 3 A
3 4 A
4 5 A
4 8 A
5 6 A
6 11 S
6 7 A
7 8 A
7 12 S
8 13 S
15 14 S
17 16 S
