22
Properties=species:S:1:pos:R:3 mol=T to=T xyz=T file=T pbc="F F F"
C -1.35420000 0.00000000 1.17030000
C -0.58420000 0.00000000 -0.16340000
C 0.95580000 0.00000000 -0.16340000
C 1.72580000 0.00000000 1.17030000
C 0.95580000 0.00000000 2.50400000
C -0.58420000 0.00000000 2.50400000
N -1.00570000 0.00080000 3.97200000
C 0.18590000 0.00020000 4.78710000
C 1.37740000 0.00150000 3.97180000
H -1.15420000 0.00000000 -1.15060000
Cl 1.63375057 -0.00000000 -1.33756282
H -2.08280000 0.00180000 4.24010000
H 0.09890000 -0.00120000 5.92380000
H 2.48360000 0.00340000 4.24710000
N 2.7089844571977677 0.29714848666067734 1.1865999999999999
H 3.0835007188807904 0.07221189618466414 0.2568999999999998
H 3.181862501872614 -0.34011827448766174 1.839
X 3.9758 0.0 1.1703
N -2.3373844571977678 -0.29714848666067717 1.1865999999999999
H -2.7119007188807904 -0.07221189618466387 0.2568999999999998
H -2.810262501872614 0.340118274487662 1.839
X -3.6042 0.0 1.1703
0 5 A
0 1 A
5 4 A
5 6 A
1 2 A
1 9 S
2 10 S
2 3 A
3 4 A
4 8 A
8 7 A
8 13 S
6 11 S
6 7 A
7 12 S
14 15 S
14 16 S
3 15 S
17 16 S
18 19 S
18 20 S
0 19 S
21 20 S
