24
mol to xyz file
C -1.3542 0.0000 1.1703
C -0.5842 0.0000 -0.1634
C 0.9558 0.0000 -0.1634
C 1.7258 0.0000 1.1703
C 0.9558 0.0000 2.5040
C -0.5842 0.0000 2.5040
N -1.0057 0.0008 3.9720
C 0.1859 0.0002 4.7871
C 1.3774 0.0015 3.9718
H -1.1542 0.0000 -1.1506
H 1.5258 0.0000 -1.1506
H -2.0828 0.0018 4.2401
H 0.0989 -0.0012 5.9238
H 2.4836 0.0034 4.2471
O 3.567856338535181 0.8724959917743819 1.4976
C 2.828084801166214 -0.19601159944748436 1.1575
O 3.316541004339609 -1.2485909967289581 0.8711
H 4.527369867177449 0.5439977751088055 1.6904
X 3.9758 0.0 1.1703
O -3.196256338535182 -0.872495991774381 1.4976
C -2.456484801166213 0.19601159944748472 1.1575
O -2.944941004339608 1.2485909967289588 0.8711
H -4.155769867177449 -0.543997775108804 1.6904
X -3.6042 0.0 1.1703
0 5 A
0 1 A
1 2 A
1 9 S
2 10 S
2 3 A
3 4 A
4 5 A
4 8 A
5 6 A
6 11 S
6 7 A
7 8 A
7 12 S
8 13 S
14 15 S
15 16 A
14 17 S
3 15 S
18 17 S
19 20 S
20 21 A
19 22 S
0 20 S
23 22 S
