21
Properties=species:S:1:pos:R:3 mol=T to=T xyz=T file=T pbc="F F F"
C -1.35420000 0.00000000 1.17030000
C -0.58420000 0.00000000 -0.16340000
C 0.95580000 0.00000000 -0.16340000
C 1.72580000 0.00000000 1.17030000
C 0.95580000 0.00000000 2.50400000
C -0.58420000 0.00000000 2.50400000
N -1.00570000 0.00080000 3.97200000
C 0.18590000 0.00020000 4.78710000
C 1.37740000 0.00150000 3.97180000
H -1.15420000 0.00000000 -1.15060000
C 1.71496506 -0.00000000 -1.47822062
H -2.08280000 0.00180000 4.24010000
H 0.09890000 -0.00120000 5.92380000
H 2.48360000 0.00340000 4.24710000
O 1.16756460 0.55550819 -2.55232650
O 2.84643295 -0.48300791 -1.53466039
H 1.88221155 0.62938107 -3.26832227
F 3.165754919433244 2.9847434855399877e-15 1.1703
X 3.9758 0.0 1.1703
F -2.794154919433244 -2.7947710504679523e-15 1.1703
X -3.6042 0.0 1.1703
0 5 A
0 1 A
5 4 A
5 6 A
1 2 A
1 9 S
2 10 S
2 3 A
10 14 S
10 15 D
3 4 A
4 8 A
8 7 A
8 13 S
6 11 S
6 7 A
7 12 S
14 16 S
18 17 S
20 19 S
