19
Properties=species:S:1:pos:R:3 mol=T to=T xyz=T file=T pbc="F F F"
C -1.37860000 -0.08070000 1.19270000
C -0.59180000 -0.26510000 -0.12800000
C 0.96370000 -0.26490000 -0.12910000
C 1.74780000 -0.08060000 1.19170000
C 0.93750000 0.10060000 2.47800000
C -0.57710000 0.10290000 2.48630000
O -1.09390000 0.30770000 3.89880000
C 0.14500000 0.43590000 4.77930000
C 1.41330000 0.31000000 3.91230000
N -1.30658172 -0.43785996 -1.36560792
H 1.52960000 -0.40180000 -1.10920000
H 2.49380000 0.36250000 4.27170000
H 0.13460000 0.60090000 5.90730000
H -2.15036692 0.23762119 -1.61818709
H -1.01390613 -1.24667034 -2.06722738
F -2.8185549194314454 -0.0807022759796435 1.1927
X -3.628584489564144 -0.08113585680922972 1.1915869047270542
F 3.1877547757861846 -0.08124318781016722 1.1917
X 3.997679845167897 -0.08013988163204348 1.1934278351217913
0 1 A
0 5 A
1 2 A
1 9 S
5 4 A
5 6 A
2 10 S
2 3 A
9 13 S
9 14 S
3 4 A
4 8 A
8 7 A
8 11 S
6 7 A
7 12 S
16 15 S
18 17 S
