17
mol to xyz file
C -1.3786 -0.0807 1.1927
C -0.5918 -0.2651 -0.1280
C 0.9637 -0.2649 -0.1291
C 1.7478 -0.0806 1.1917
C 0.9375 0.1006 2.4780
C -0.5771 0.1029 2.4863
O -1.0939 0.3077 3.8988
C 0.1450 0.4359 4.7793
C 1.4133 0.3100 3.9123
H -1.1578 -0.4019 -1.1080
H 1.5296 -0.4018 -1.1092
H 2.4938 0.3625 4.2717
H 0.1346 0.6009 5.9073
F -2.8185549194314454 -0.0807022759796435 1.1927
X -3.628584489564144 -0.08113585680922972 1.1915869047270542
F 3.1877547757861846 -0.08124318781016722 1.1917
X 3.997679845167897 -0.08013988163204348 1.1934278351217913
0 1 A
0 5 A
1 2 A
1 9 S
2 10 S
2 3 A
3 4 A
4 5 A
4 8 A
5 6 A
6 7 A
7 8 A
7 12 S
8 11 S
14 13 S
16 15 S
