23
Properties=species:S:1:pos:R:3 mol=T to=T xyz=T file=T pbc="F F F"
C -1.37860000 -0.08070000 1.19270000
C -0.59180000 -0.26510000 -0.12800000
C 0.96370000 -0.26490000 -0.12910000
C 1.74780000 -0.08060000 1.19170000
C 0.93750000 0.10060000 2.47800000
C -0.57710000 0.10290000 2.48630000
O -1.09390000 0.30770000 3.89880000
C 0.14500000 0.43590000 4.77930000
C 1.41330000 0.31000000 3.91230000
H -1.15780000 -0.40190000 -1.10800000
H 1.52960000 -0.40180000 -1.10920000
F 2.69846179 0.37244423 4.33977538
H 0.13460000 0.60090000 5.90730000
O -3.220980233372424 -0.952511840753826 1.5200000000000002
C -2.480811931645807 0.11572094526200155 1.1799000000000002
O -2.968877201072689 1.1684816696335298 0.8935000000000002
H -4.1803717003249306 -0.6236573088727573 1.7128
X -3.628584489564144 -0.08113585680922972 1.1915869047270542
O 3.589435231071379 0.7927845004788378 1.5190000000000001
C 2.850179229143956 -0.2760798331081161 1.1789
O 3.3391431410676926 -1.3284234760481195 0.8925000000000001
H 4.549107116009326 0.4647491925321945 1.7118000000000002
X 3.997679845167897 -0.08013988163204348 1.1934278351217913
0 1 A
0 5 A
1 2 A
1 9 S
5 4 A
5 6 A
2 10 S
2 3 A
3 4 A
4 8 A
8 7 A
8 11 S
6 7 A
7 12 S
13 14 S
14 15 A
13 16 S
0 14 S
17 16 S
18 19 S
19 20 A
18 21 S
3 19 S
22 21 S
