24
Properties=species:S:1:pos:R:3 mol=T to=T xyz=T file=T pbc="F F F"
C -1.37860000 -0.08070000 1.19270000
C -0.59180000 -0.26510000 -0.12800000
C 0.96370000 -0.26490000 -0.12910000
C 1.74780000 -0.08060000 1.19170000
C 0.93750000 0.10060000 2.47800000
C -0.57710000 0.10290000 2.48630000
O -1.09390000 0.30770000 3.89880000
C 0.14500000 0.43590000 4.77930000
C 1.41330000 0.31000000 3.91230000
H -1.15780000 -0.40190000 -1.10800000
C 1.71737059 -0.44722462 -1.43440579
H 2.49380000 0.36250000 4.27170000
H 0.13460000 0.60090000 5.90730000
O 1.24225896 0.09645269 -2.54823880
O 2.78121629 -1.06749670 -1.44842471
H 1.96069105 0.03352923 -3.26148728
N -2.3620566638365066 -0.3769463339107649 1.209
H -2.7363663986555533 -0.15166623621082306 0.2793
H -2.8343498457920333 0.2607540034565004 1.8614000000000002
X -3.628584489564144 -0.08113585680922972 1.1915869047270542
N 2.7306154177136963 0.21776681233718487 1.208
H 3.1054101770352176 -0.006705431793627842 0.2782999999999999
H 3.2042829244326114 -0.4189133766735041 1.8603999999999998
X 3.997679845167897 -0.08013988163204348 1.1934278351217913
0 1 A
0 5 A
1 2 A
1 9 S
5 4 A
5 6 A
2 10 S
2 3 A
10 13 S
10 14 D
3 4 A
4 8 A
8 7 A
8 11 S
6 7 A
7 12 S
13 15 S
16 17 S
16 18 S
0 17 S
19 18 S
20 21 S
20 22 S
3 21 S
23 22 S
