23
mol to xyz file
C -1.3786 -0.0807 1.1927
C -0.5918 -0.2651 -0.1280
C 0.9637 -0.2649 -0.1291
C 1.7478 -0.0806 1.1917
C 0.9375 0.1006 2.4780
C -0.5771 0.1029 2.4863
O -1.0939 0.3077 3.8988
C 0.1450 0.4359 4.7793
C 1.4133 0.3100 3.9123
H -1.1578 -0.4019 -1.1080
H 1.5296 -0.4018 -1.1092
H 2.4938 0.3625 4.2717
H 0.1346 0.6009 5.9073
O -3.220980233372424 -0.952511840753826 1.5200000000000002
C -2.480811931645807 0.11572094526200155 1.1799000000000002
O -2.968877201072689 1.1684816696335298 0.8935000000000002
H -4.1803717003249306 -0.6236573088727573 1.7128
X -3.628584489564144 -0.08113585680922972 1.1915869047270542
O 3.589435231071379 0.7927845004788378 1.5190000000000001
C 2.850179229143956 -0.2760798331081161 1.1789
O 3.3391431410676926 -1.3284234760481195 0.8925000000000001
H 4.549107116009326 0.4647491925321945 1.7118000000000002
X 3.997679845167897 -0.08013988163204348 1.1934278351217913
0 1 A
0 5 A
1 2 A
1 9 S
2 10 S
2 3 A
3 4 A
4 5 A
4 8 A
5 6 A
6 7 A
7 8 A
7 12 S
8 11 S
13 14 S
14 15 A
13 16 S
0 14 S
17 16 S
18 19 S
19 20 A
18 21 S
3 19 S
22 21 S
