21
mol to xyz file
C -1.3786 -0.0807 1.1927
C -0.5918 -0.2651 -0.1280
C 0.9637 -0.2649 -0.1291
C 1.7478 -0.0806 1.1917
C 0.9375 0.1006 2.4780
C -0.5771 0.1029 2.4863
O -1.0939 0.3077 3.8988
C 0.1450 0.4359 4.7793
C 1.4133 0.3100 3.9123
H -1.1578 -0.4019 -1.1080
H 1.5296 -0.4018 -1.1092
H 2.4938 0.3625 4.2717
H 0.1346 0.6009 5.9073
N -2.3620566638365066 -0.3769463339107649 1.209
H -2.7363663986555533 -0.15166623621082306 0.2793
H -2.8343498457920333 0.2607540034565004 1.8614000000000002
X -3.628584489564144 -0.08113585680922972 1.1915869047270542
N 2.7306154177136963 0.21776681233718487 1.208
H 3.1054101770352176 -0.006705431793627842 0.2782999999999999
H 3.2042829244326114 -0.4189133766735041 1.8603999999999998
X 3.997679845167897 -0.08013988163204348 1.1934278351217913
0 1 A
0 5 A
1 2 A
1 9 S
2 10 S
2 3 A
3 4 A
4 5 A
4 8 A
5 6 A
6 7 A
7 8 A
7 12 S
8 11 S
13 14 S
13 15 S
0 14 S
16 15 S
17 18 S
17 19 S
3 18 S
20 19 S
