23
mol to xyz file
C -1.3864 -0.0902 1.1162
C -0.5859 -0.2637 -0.1951
C 0.9670 -0.2574 -0.1775
C 1.7400 -0.0792 1.1507
C 0.9356 0.0674 2.4487
C -0.5945 0.0620 2.4230
S -1.2077 0.2451 4.1010
C 0.3814 0.3420 4.9417
C 1.5106 0.2303 3.8859
H -1.1401 -0.3925 -1.1831
H 1.5429 -0.3818 -1.1535
H 0.5322 0.4657 6.0649
H 2.6233 0.2580 4.1321
O -3.2187314357562022 -0.9829386625097036 1.4435000000000002
C -2.490777533678231 0.09365481529399203 1.1034000000000002
O -2.9908013242119127 1.140788550258313 0.8170000000000002
H -4.18180609003177 -0.6650322292750237 1.6363000000000003
X -3.6360139421993924 -0.09706132367948962 1.0904122885573115
O 3.588151440660183 0.7803097802734366 1.4780000000000002
C 2.8408779480725705 -0.2829647502575608 1.1379000000000001
O 3.3219138799316057 -1.3389558876543242 0.8515000000000001
H 4.5453291964876845 0.44506653463077345 1.6708000000000003
X 3.9896625894083697 -0.07120762466766935 1.176313954858318
0 1 A
0 5 A
1 2 A
1 9 S
2 10 S
2 3 A
3 4 A
4 5 A
4 8 A
5 6 A
6 7 A
7 11 S
7 8 A
8 12 S
13 14 S
14 15 A
13 16 S
0 14 S
17 16 S
18 19 S
19 20 A
18 21 S
3 19 S
22 21 S
