19
Properties=species:S:1:pos:R:3 mol=T to=T xyz=T file=T pbc="F F F"
C -1.38640000 -0.09020000 1.11620000
C -0.58590000 -0.26370000 -0.19510000
C 0.96700000 -0.25740000 -0.17750000
C 1.74000000 -0.07920000 1.15070000
C 0.93560000 0.06740000 2.44870000
C -0.59450000 0.06200000 2.42300000
S -1.20770000 0.24510000 4.10100000
C 0.38140000 0.34200000 4.94170000
C 1.51060000 0.23030000 3.88590000
H -1.14010000 -0.39250000 -1.18310000
H 1.54290000 -0.38180000 -1.15350000
N 0.57182755 0.49820616 6.36005695
H 2.62330000 0.25800000 4.13210000
O -0.16631892 1.32672952 7.04041687
O 1.48533934 -0.18644796 6.98529978
F -2.8262662386000263 -0.10618076781050487 1.1162
X -3.6360139421993924 -0.09706132367948962 1.0904122885573115
F 3.179920961484501 -0.08908911914934886 1.1507
X 3.9896625894083697 -0.07120762466766935 1.176313954858318
0 1 A
0 5 A
1 2 A
1 9 S
5 4 A
5 6 A
2 10 S
2 3 A
3 4 A
4 8 A
8 7 A
8 12 S
6 7 A
7 11 S
11 13 D
11 14 S
16 15 S
18 17 S
