26
Properties=species:S:1:pos:R:3 mol=T to=T xyz=T file=T pbc="F F F"
C -1.38640000 -0.09020000 1.11620000
C -0.58590000 -0.26370000 -0.19510000
C 0.96700000 -0.25740000 -0.17750000
C 1.74000000 -0.07920000 1.15070000
C 0.93560000 0.06740000 2.44870000
C -0.59450000 0.06200000 2.42300000
S -1.20770000 0.24510000 4.10100000
C 0.38140000 0.34200000 4.94170000
C 1.51060000 0.23030000 3.88590000
H -1.14010000 -0.39250000 -1.18310000
H 1.54290000 -0.38180000 -1.15350000
C 0.58223366 0.50674220 6.43756453
H 2.62330000 0.25800000 4.13210000
O 1.62729176 1.18983147 6.88832244
O -0.24125565 0.03708739 7.22368880
H 1.49324387 1.35354652 7.88031839
O -3.2187314357562022 -0.9829386625097036 1.4435000000000002
C -2.490777533678231 0.09365481529399203 1.1034000000000002
O -2.9908013242119127 1.140788550258313 0.8170000000000002
H -4.18180609003177 -0.6650322292750237 1.6363000000000003
X -3.6360139421993924 -0.09706132367948962 1.0904122885573115
O 3.588151440660183 0.7803097802734366 1.4780000000000002
C 2.8408779480725705 -0.2829647502575608 1.1379000000000001
O 3.3219138799316057 -1.3389558876543242 0.8515000000000001
H 4.5453291964876845 0.44506653463077345 1.6708000000000003
X 3.9896625894083697 -0.07120762466766935 1.176313954858318
0 1 A
0 5 A
1 2 A
1 9 S
5 4 A
5 6 A
2 10 S
2 3 A
3 4 A
4 8 A
8 7 A
8 12 S
6 7 A
7 11 S
11 13 S
11 14 D
13 15 S
16 17 S
17 18 A
16 19 S
0 17 S
20 19 S
21 22 S
22 23 A
21 24 S
3 22 S
25 24 S
