21
Properties=species:S:1:pos:R:3 mol=T to=T xyz=T file=T pbc="F F F"
C -1.38640000 -0.09020000 1.11620000
C -0.58590000 -0.26370000 -0.19510000
C 0.96700000 -0.25740000 -0.17750000
C 1.74000000 -0.07920000 1.15070000
C 0.93560000 0.06740000 2.44870000
C -0.59450000 0.06200000 2.42300000
S -1.20770000 0.24510000 4.10100000
C 0.38140000 0.34200000 4.94170000
C 1.51060000 0.23030000 3.88590000
H -1.14010000 -0.39250000 -1.18310000
Cl 1.65190252 -0.40534560 -1.33823078
H 0.53220000 0.46570000 6.06490000
H 2.62330000 0.25800000 4.13210000
N -2.3666144121633743 -0.39700385621307077 1.1325
H -2.743324839338663 -0.17576155904227264 0.20279999999999998
H -2.84573718348347 0.23558126849549493 1.7849
X -3.6360139421993924 -0.09706132367948962 1.0904122885573115
N 2.725584719181249 0.20988763604903515 1.167
H 3.098246512379636 -0.018108170689076254 0.23729999999999996
H 3.1932285975261503 -0.43122996084449805 1.8194
X 3.9896625894083697 -0.07120762466766935 1.176313954858318
0 1 A
0 5 A
1 2 A
1 9 S
5 4 A
5 6 A
2 10 S
2 3 A
3 4 A
4 8 A
8 7 A
8 12 S
6 7 A
7 11 S
13 14 S
13 15 S
0 14 S
16 15 S
17 18 S
17 19 S
3 18 S
20 19 S
