18
mol to xyz file
C -1.3541 0.0063 1.1768
C -0.5841 0.0063 -0.1569
C 0.9559 0.0063 -0.1569
C 1.7259 0.0063 1.1768
C 0.9559 0.0063 2.5105
C -0.5841 0.0063 2.5105
H -1.1541 0.0063 -1.1441
H 1.5259 0.0063 -1.1441
C -0.6126 0.0063 4.0502
C 0.9274 0.0063 4.0555
H -1.0507 0.9675 4.4788
H -1.1570 -0.9245 4.4202
H 1.3581 -0.9530 4.4958
H 1.4577 0.9371 4.4453
F -2.794042134724575 0.00023216308449600185 1.1768
X -3.6039726278113653 0.006076959274622717 1.1773152487343905
F 3.16583980155857 -0.00029832459541605325 1.1768
X 3.975872624256402 0.00687652920877721 1.1766148471287847
0 5 A
0 1 A
1 2 A
1 6 S
2 7 S
2 3 A
3 4 A
4 5 A
4 9 S
5 8 S
8 9 S
8 11 S
8 10 S
9 12 S
9 13 S
15 14 S
17 16 S
