22
mol to xyz file
C -1.3541 0.0063 1.1768
C -0.5841 0.0063 -0.1569
C 0.9559 0.0063 -0.1569
C 1.7259 0.0063 1.1768
C 0.9559 0.0063 2.5105
C -0.5841 0.0063 2.5105
H -1.1541 0.0063 -1.1441
H 1.5259 0.0063 -1.1441
C -0.6126 0.0063 4.0502
C 0.9274 0.0063 4.0555
H -1.0507 0.9675 4.4788
H -1.1570 -0.9245 4.4202
H 1.3581 -0.9530 4.4958
H 1.4577 0.9371 4.4453
N -2.336312817118157 -0.2940446052267517 1.1931
H -2.7115586774161304 -0.07032727391503998 0.26339999999999997
H -2.8112609948748384 0.34168080597340456 1.8455
X -3.6039726278113653 0.006076959274622717 1.1773152487343905
N 2.7100133788748195 0.30035740514325804 1.1931
H 3.083820937933732 0.07424502425619156 0.26339999999999997
H 3.1808865056574085 -0.338392208143504 1.8455
X 3.975872624256402 0.00687652920877721 1.1766148471287847
0 5 A
0 1 A
1 2 A
1 6 S
2 7 S
2 3 A
3 4 A
4 5 A
4 9 S
5 8 S
8 9 S
8 11 S
8 10 S
9 12 S
9 13 S
14 15 S
14 16 S
0 15 S
17 16 S
18 19 S
18 20 S
3 19 S
21 20 S
