18
Properties=species:S:1:pos:R:3 mol=T to=T xyz=T file=T pbc="F F F"
C -1.35410000 0.00630000 1.17680000
C -0.58410000 0.00630000 -0.15690000
C 0.95590000 0.00630000 -0.15690000
C 1.72590000 0.00630000 1.17680000
C 0.95590000 0.00630000 2.51050000
C -0.58410000 0.00630000 2.51050000
H -1.15410000 0.00630000 -1.14410000
H 1.52590000 0.00630000 -1.14410000
C -0.61260000 0.00630000 4.05020000
C 0.92740000 0.00630000 4.05550000
H -1.05070000 0.96750000 4.47880000
F -1.26005340 -1.10069784 4.49023997
H 1.35810000 -0.95300000 4.49580000
H 1.45770000 0.93710000 4.44530000
F -2.794042134724575 0.00023216308449600185 1.1768
X -3.6039726278113653 0.006076959274622717 1.1773152487343905
F 3.16583980155857 -0.00029832459541605325 1.1768
X 3.975872624256402 0.00687652920877721 1.1766148471287847
0 5 A
0 1 A
5 4 A
5 8 S
1 2 A
1 6 S
2 7 S
2 3 A
3 4 A
4 9 S
9 8 S
9 12 S
9 13 S
8 11 S
8 10 S
15 14 S
17 16 S
