24
Properties=species:S:1:pos:R:3 mol=T to=T xyz=T file=T pbc="F F F"
C -1.35410000 0.00630000 1.17680000
C -0.58410000 0.00630000 -0.15690000
C 0.95590000 0.00630000 -0.15690000
C 1.72590000 0.00630000 1.17680000
C 0.95590000 0.00630000 2.51050000
C -0.58410000 0.00630000 2.51050000
N -1.30393495 0.00630000 -1.40360362
H 1.52590000 0.00630000 -1.14410000
C -0.61260000 0.00630000 4.05020000
C 0.92740000 0.00630000 4.05550000
H -1.05070000 0.96750000 4.47880000
H -1.15700000 -0.92450000 4.42020000
H 1.35810000 -0.95300000 4.49580000
H 1.45770000 0.93710000 4.44530000
H -2.17765671 0.67715193 -1.54003111
H -0.98521340 -0.66468143 -2.22840880
N -2.336312817118157 -0.2940446052267517 1.1931
H -2.7115586774161304 -0.07032727391503998 0.26339999999999997
H -2.8112609948748384 0.34168080597340456 1.8455
X -3.6039726278113653 0.006076959274622717 1.1773152487343905
N 2.7100133788748195 0.30035740514325804 1.1931
H 3.083820937933732 0.07424502425619156 0.26339999999999997
H 3.1808865056574085 -0.338392208143504 1.8455
X 3.975872624256402 0.00687652920877721 1.1766148471287847
0 5 A
0 1 A
5 4 A
5 8 S
1 2 A
1 6 S
2 7 S
2 3 A
6 14 S
6 15 S
3 4 A
4 9 S
9 8 S
9 12 S
9 13 S
8 11 S
8 10 S
16 17 S
16 18 S
0 17 S
19 18 S
20 21 S
20 22 S
3 21 S
23 22 S
