27
Properties=species:S:1:pos:R:3 mol=T to=T xyz=T file=T pbc="F F F"
C -1.35410000 0.00630000 1.17680000
C -0.58410000 0.00630000 -0.15690000
C 0.95590000 0.00630000 -0.15690000
C 1.72590000 0.00630000 1.17680000
C 0.95590000 0.00630000 2.51050000
C -0.58410000 0.00630000 2.51050000
H -1.15410000 0.00630000 -1.14410000
H 1.52590000 0.00630000 -1.14410000
C -0.61260000 0.00630000 4.05020000
C 0.92740000 0.00630000 4.05550000
H -1.05070000 0.96750000 4.47880000
H -1.15700000 -0.92450000 4.42020000
H 1.35810000 -0.95300000 4.49580000
C 1.64954897 1.27383962 4.58631966
H 2.34115127 1.01497989 5.19972259
H 2.03746026 1.75299612 3.85036936
H 1.01663120 1.83762328 5.03705478
O -3.1927937642901103 -0.8732601464144819 1.5041000000000002
C -2.4571290553464875 0.19807912571871822 1.1640000000000001
O -2.9496218998290513 1.2487758698525684 0.8776000000000002
H -4.153561137882201 -0.5484473636596193 1.6969000000000003
X -3.6039726278113653 0.006076959274622717 1.1773152487343905
O 3.5713189020100042 0.8716611304560602 1.5041000000000002
C 2.827418028548102 -0.19397571690922263 1.1640000000000001
O 3.3117973375764813 -1.2484374445149193 0.8776000000000002
H 4.529554034733811 0.5394522798608525 1.6969000000000003
X 3.975872624256402 0.00687652920877721 1.1766148471287847
0 5 A
0 1 A
5 4 A
5 8 S
1 2 A
1 6 S
2 7 S
2 3 A
3 4 A
4 9 S
9 8 S
9 12 S
9 13 S
8 11 S
8 10 S
13 14 S
13 15 S
13 16 S
17 18 S
18 19 A
17 20 S
0 18 S
21 20 S
22 23 S
23 24 A
22 25 S
3 23 S
26 25 S
