24
mol to xyz file
C -1.3541 0.0063 1.1768
C -0.5841 0.0063 -0.1569
C 0.9559 0.0063 -0.1569
C 1.7259 0.0063 1.1768
C 0.9559 0.0063 2.5105
C -0.5841 0.0063 2.5105
H -1.1541 0.0063 -1.1441
H 1.5259 0.0063 -1.1441
C -0.6126 0.0063 4.0502
C 0.9274 0.0063 4.0555
H -1.0507 0.9675 4.4788
H -1.1570 -0.9245 4.4202
H 1.3581 -0.9530 4.4958
H 1.4577 0.9371 4.4453
O -3.1927937642901103 -0.8732601464144819 1.5041000000000002
C -2.4571290553464875 0.19807912571871822 1.1640000000000001
O -2.9496218998290513 1.2487758698525684 0.8776000000000002
H -4.153561137882201 -0.5484473636596193 1.6969000000000003
X -3.6039726278113653 0.006076959274622717 1.1773152487343905
O 3.5713189020100042 0.8716611304560602 1.5041000000000002
C 2.827418028548102 -0.19397571690922263 1.1640000000000001
O 3.3117973375764813 -1.2484374445149193 0.8776000000000002
H 4.529554034733811 0.5394522798608525 1.6969000000000003
X 3.975872624256402 0.00687652920877721 1.1766148471287847
0 5 A
0 1 A
1 2 A
1 6 S
2 7 S
2 3 A
3 4 A
4 5 A
4 9 S
5 8 S
8 9 S
8 11 S
8 10 S
9 12 S
9 13 S
14 15 S
15 16 A
14 17 S
0 15 S
18 17 S
19 20 S
20 21 A
19 22 S
3 20 S
23 22 S
