24
Properties=species:S:1:pos:R:3 mol=T to=T xyz=T file=T pbc="F F F"
C -1.36110000 -0.07870000 1.18120000
C -0.58680000 -0.23930000 -0.13870000
C 0.95050000 -0.23780000 -0.13920000
C 1.72540000 -0.07620000 1.17990000
C 0.95550000 0.05980000 2.51370000
C -0.58990000 0.05930000 2.51440000
H -1.15520000 -0.35400000 -1.12010000
Cl 1.62599805 -0.37337531 -1.30693157
C -1.35450000 0.19480000 3.84760000
C -0.58490000 0.33320000 5.17250000
C 0.95230000 0.33420000 5.17190000
C 1.72110000 0.19680000 3.84630000
H -2.49200000 0.19160000 3.85820000
H -1.15460000 0.43410000 6.15480000
H 1.52260000 0.43480000 6.15380000
H 2.85870000 0.19440000 3.85610000
N -2.3405405252008533 -0.38796551310205485 1.1975
H -2.7178055978619264 -0.16767033623693356 0.2677999999999999
H -2.821251049012815 0.24341389921389128 1.8498999999999999
X -3.610599149929285 -0.08026610834404793 1.1816523664696716
N 2.7115285507294775 0.21102705554348444 1.1962
H 3.08375939033217 -0.017671659032428767 0.26649999999999985
H 3.177961633462634 -0.43097197041531277 1.8485999999999998
X 3.9748355514909717 -0.07393597900545866 1.1782881418079731
0 1 A
0 5 A
1 2 A
1 6 S
5 4 A
5 8 A
2 7 S
2 3 A
3 4 A
4 11 A
11 10 A
11 15 S
8 12 S
8 9 A
9 10 A
9 13 S
10 14 S
16 17 S
16 18 S
0 17 S
19 18 S
20 21 S
20 22 S
3 21 S
23 22 S
