24
mol to xyz file
C -1.3611 -0.0787 1.1812
C -0.5868 -0.2393 -0.1387
C 0.9505 -0.2378 -0.1392
C 1.7254 -0.0762 1.1799
C 0.9555 0.0598 2.5137
C -0.5899 0.0593 2.5144
H -1.1552 -0.3540 -1.1201
H 1.5185 -0.3518 -1.1211
C -1.3545 0.1948 3.8476
C -0.5849 0.3332 5.1725
C 0.9523 0.3342 5.1719
C 1.7211 0.1968 3.8463
H -2.4920 0.1916 3.8582
H -1.1546 0.4341 6.1548
H 1.5226 0.4348 6.1538
H 2.8587 0.1944 3.8561
N -2.3405405252008533 -0.38796551310205485 1.1975
H -2.7178055978619264 -0.16767033623693356 0.2677999999999999
H -2.821251049012815 0.24341389921389128 1.8498999999999999
X -3.610599149929285 -0.08026610834404793 1.1816523664696716
N 2.7115285507294775 0.21102705554348444 1.1962
H 3.08375939033217 -0.017671659032428767 0.26649999999999985
H 3.177961633462634 -0.43097197041531277 1.8485999999999998
X 3.9748355514909717 -0.07393597900545866 1.1782881418079731
0 1 A
0 5 A
1 2 A
1 6 S
2 7 S
2 3 A
3 4 A
4 5 A
4 11 A
5 8 A
8 12 S
8 9 A
9 10 A
9 13 S
10 11 A
10 14 S
11 15 S
16 17 S
16 18 S
0 17 S
19 18 S
20 21 S
20 22 S
3 21 S
23 22 S
