20
Properties=species:S:1:pos:R:3 mol=T to=T xyz=T file=T pbc="F F F"
C -1.36110000 -0.07870000 1.18120000
C -0.58680000 -0.23930000 -0.13870000
C 0.95050000 -0.23780000 -0.13920000
C 1.72540000 -0.07620000 1.17990000
C 0.95550000 0.05980000 2.51370000
C -0.58990000 0.05930000 2.51440000
F -1.26286921 -0.37572705 -1.30600176
H 1.51850000 -0.35180000 -1.12110000
C -1.35450000 0.19480000 3.84760000
C -0.58490000 0.33320000 5.17250000
C 0.95230000 0.33420000 5.17190000
C 1.72110000 0.19680000 3.84630000
H -2.49200000 0.19160000 3.85820000
H -1.15460000 0.43410000 6.15480000
H 1.52260000 0.43480000 6.15380000
H 2.85870000 0.19440000 3.85610000
F -2.8010253704628667 -0.08792483047956397 1.1812
X -3.610599149929285 -0.08026610834404793 1.1816523664696716
F 3.165299709473196 -0.088809387733198 1.1799
X 3.9748355514909717 -0.07393597900545866 1.1782881418079731
0 1 A
0 5 A
1 2 A
1 6 S
5 4 A
5 8 A
2 7 S
2 3 A
3 4 A
4 11 A
11 10 A
11 15 S
8 12 S
8 9 A
9 10 A
9 13 S
10 14 S
17 16 S
19 18 S
