26
mol to xyz file
C -1.3611 -0.0787 1.1812
C -0.5868 -0.2393 -0.1387
C 0.9505 -0.2378 -0.1392
C 1.7254 -0.0762 1.1799
C 0.9555 0.0598 2.5137
C -0.5899 0.0593 2.5144
H -1.1552 -0.3540 -1.1201
H 1.5185 -0.3518 -1.1211
C -1.3545 0.1948 3.8476
C -0.5849 0.3332 5.1725
C 0.9523 0.3342 5.1719
C 1.7211 0.1968 3.8463
H -2.4920 0.1916 3.8582
H -1.1546 0.4341 6.1548
H 1.5226 0.4348 6.1538
H 2.8587 0.1944 3.8561
O -3.193972351241802 -0.9703275870863064 1.5085000000000002
C -2.4653658626614807 0.10582434679601242 1.1684
O -2.964754701943784 1.1532610452175798 0.8820000000000001
H -4.15685408725737 -0.6518373165164753 1.7013000000000003
X -3.610599149929285 -0.08026610834404793 1.1816523664696716
O 3.575159188943795 0.7798442470561866 1.5072
C 2.8258940944082003 -0.28202778765918657 1.1671
O 3.3049499181448194 -1.3389186844617043 0.8807
H 4.531706911014749 0.44280753481125873 1.7000000000000002
X 3.9748355514909717 -0.07393597900545866 1.1782881418079731
0 1 A
0 5 A
1 2 A
1 6 S
2 7 S
2 3 A
3 4 A
4 5 A
4 11 A
5 8 A
8 12 S
8 9 A
9 10 A
9 13 S
10 11 A
10 14 S
11 15 S
16 17 S
17 18 A
16 19 S
0 17 S
20 19 S
21 22 S
22 23 A
21 24 S
3 22 S
25 24 S
