68
Properties=species:S:1:pos:R:3 mol=T to=T xyz=T file=T pbc="F F F"
C 1.45730000 -0.43720000 0.00090000
S 2.39960000 -1.97680000 -0.16820000
C 4.03410000 -1.21080000 -0.03510000
C 4.03580000 0.33040000 0.03770000
S 2.40330000 1.10020000 0.17040000
C 5.30880000 1.19870000 -0.06790000
C 6.63960000 0.61110000 -0.57290000
C 6.63780000 -1.49720000 0.57510000
C 5.30550000 -2.08180000 0.07030000
C 5.22420000 -3.57330000 -0.30080000
C 6.49660000 -4.43960000 -0.29870000
C 7.84930000 -3.82190000 0.09580000
C 7.91690000 -2.35500000 0.55750000
C 7.92040000 1.46640000 -0.55630000
C 7.85600000 2.93410000 -0.09540000
C 6.50470000 3.55450000 0.29970000
C 5.23070000 2.69050000 0.30270000
H 4.22060000 -4.03790000 -0.57780000
H 6.43730000 -5.54030000 -0.58960000
H 8.91070000 -1.90330000 0.88600000
H 8.91320000 1.01260000 -0.88470000
H 6.44620000 4.65520000 0.59080000
H 4.22830000 3.15720000 0.57990000
C -0.08440000 -0.43580000 0.00040000
S -1.02690000 1.10340000 0.16970000
C -2.66130000 0.33760000 0.03630000
C -2.66280000 -1.20370000 -0.03630000
S -1.03000000 -1.97340000 -0.16860000
C -3.93620000 -2.07160000 0.06910000
C -5.26740000 -1.48400000 0.57360000
C -5.26450000 0.62420000 -0.57530000
C -3.93270000 1.20860000 -0.06900000
C -3.85210000 2.69980000 0.30340000
C -5.12450000 3.56620000 0.30090000
C -6.47690000 2.94840000 -0.09510000
C -6.54380000 1.48170000 -0.55810000
C -6.54820000 -2.33950000 0.55680000
C -6.48340000 -3.80710000 0.09600000
C -5.13170000 -4.42740000 -0.29850000
C -3.85800000 -3.56320000 -0.30130000
H -2.84900000 3.16440000 0.58170000
H -5.06540000 4.66660000 0.59270000
H -7.53720000 1.03000000 -0.88780000
H -7.54120000 -1.88570000 0.88500000
H -5.07280000 -5.52810000 -0.58920000
H -2.85550000 -4.02990000 -0.57840000
H 6.67900000 -0.46020000 -0.96070000
H 6.67530000 -0.42580000 0.96270000
H -5.30710000 -0.41260000 0.96120000
N -5.31665214 -0.72784107 -1.06689390
O -4.32378470 -1.54497975 -0.86515291
O -6.35757355 -1.15531098 -1.72106188
N 8.863152605132925 -3.9863742991022693 0.11209999999999999
H 9.100961154312007 -4.352852120992408 -0.8176000000000001
H 9.008390120741433 -4.766520845630463 0.7645
X 9.828476859219903 -4.879280776423009 0.0837937088439282
N 8.62218127130364 3.6181432438841394 -0.0791
H 9.056624146980967 3.572118383501781 -1.0088000000000001
H 9.31969158926914 3.2397229400794036 0.5733
X 9.837069694910722 3.987737739529408 -0.08410350038715696
N -7.490756039124195 3.1128531298923736 -0.07880000000000001
H -7.728572240283651 3.479325986276151 -1.0085
H -7.636009844108338 3.8929966437009726 0.5736
X -8.456195655483311 4.005542330304253 -0.08314663041964326
N -7.249591897125997 -4.4911313419562475 0.1123
H -7.684034057801597 -4.445099732952038 -0.8174
H -7.947096336633506 -4.112700203085097 0.7647
X -8.464580746928617 -4.860513405629915 0.0844325514724794
0 23 D
0 4 S
0 1 S
23 24 S
23 27 S
4 3 S
1 2 S
2 3 D
2 8 S
3 5 S
8 7 A
8 9 A
5 6 A
5 16 A
6 13 A
6 46 S
16 15 A
16 22 S
13 20 S
13 14 A
7 12 A
7 47 S
12 11 A
12 19 S
9 17 S
9 10 A
10 18 S
10 11 A
14 15 A
15 21 S
24 25 S
27 26 S
25 31 S
25 26 D
31 30 A
31 32 A
26 28 S
28 29 A
28 39 A
29 48 S
29 36 A
39 38 A
39 45 S
36 43 S
36 37 A
30 35 A
30 49 S
35 34 A
35 42 S
49 50 D
49 51 S
32 33 A
32 40 S
33 41 S
33 34 A
37 38 A
38 44 S
52 53 S
52 54 S
11 53 S
55 54 S
56 57 S
56 58 S
14 57 S
59 58 S
60 61 S
60 62 S
34 61 S
63 62 S
64 65 S
64 66 S
37 65 S
67 66 S
