70
mol to xyz file
C 1.4573 -0.4372 0.0009
S 2.3996 -1.9768 -0.1682
C 4.0341 -1.2108 -0.0351
C 4.0358 0.3304 0.0377
S 2.4033 1.1002 0.1704
C 5.3088 1.1987 -0.0679
C 6.6396 0.6111 -0.5729
C 6.6378 -1.4972 0.5751
C 5.3055 -2.0818 0.0703
C 5.2242 -3.5733 -0.3008
C 6.4966 -4.4396 -0.2987
C 7.8493 -3.8219 0.0958
C 7.9169 -2.3550 0.5575
C 7.9204 1.4664 -0.5563
C 7.8560 2.9341 -0.0954
C 6.5047 3.5545 0.2997
C 5.2307 2.6905 0.3027
H 4.2206 -4.0379 -0.5778
H 6.4373 -5.5403 -0.5896
H 8.9107 -1.9033 0.8860
H 8.9132 1.0126 -0.8847
H 6.4462 4.6552 0.5908
H 4.2283 3.1572 0.5799
C -0.0844 -0.4358 0.0004
S -1.0269 1.1034 0.1697
C -2.6613 0.3376 0.0363
C -2.6628 -1.2037 -0.0363
S -1.0300 -1.9734 -0.1686
C -3.9362 -2.0716 0.0691
C -5.2674 -1.4840 0.5736
C -5.2645 0.6242 -0.5753
C -3.9327 1.2086 -0.0690
C -3.8521 2.6998 0.3034
C -5.1245 3.5662 0.3009
C -6.4769 2.9484 -0.0951
C -6.5438 1.4817 -0.5581
C -6.5482 -2.3395 0.5568
C -6.4834 -3.8071 0.0960
C -5.1317 -4.4274 -0.2985
C -3.8580 -3.5632 -0.3013
H -2.8490 3.1644 0.5817
H -5.0654 4.6666 0.5927
H -7.5372 1.0300 -0.8878
H -7.5412 -1.8857 0.8850
H -5.0728 -5.5281 -0.5892
H -2.8555 -4.0299 -0.5784
H 6.6790 -0.4602 -0.9607
H 6.6753 -0.4258 0.9627
H -5.3071 -0.4126 0.9612
H -5.3058 -0.4465 -0.9646
O 9.887535135248365 -3.8176170758723336 0.42310000000000003
C 8.762944706483252 -4.468974709995017 0.08299999999999999
O 8.756253787717592 -5.629348822773336 -0.20339999999999997
H 10.615561396725775 -4.523701385710206 0.6159
X 9.828476859219903 -4.879280776423009 0.0837937088439282
O 9.162574875282672 4.498479399404143 0.23190000000000002
C 8.938913638549788 3.218266115930207 -0.1082
O 9.8236532761912 2.467434161638075 -0.39459999999999995
H 10.171413396924676 4.602508853171708 0.4247000000000001
X 9.837069694910722 3.987737739529408 -0.08410350038715696
O -8.515135000353157 2.94405335354968 0.23220000000000002
C -7.390564935844436 3.5954461459651705 -0.10790000000000001
O -7.383910294415687 4.755820467357822 -0.3943
H -9.243183336127949 3.6501149024075352 0.42500000000000004
X -8.456195655483311 4.005542330304253 -0.08314663041964326
O -7.789990422933902 -5.371466413822991 0.4233
C -7.566316462705061 -4.0912553532882265 0.0832
O -8.45104863809648 -3.3404146059741446 -0.20319999999999996
H -8.798829978431524 -5.475485841159228 0.6161000000000001
X -8.464580746928617 -4.860513405629915 0.0844325514724794
0 23 D
0 4 S
0 1 S
1 2 S
2 3 D
2 8 S
3 4 S
3 5 S
5 6 A
5 16 A
6 13 A
6 46 S
7 12 A
7 47 S
7 8 A
8 9 A
9 17 S
9 10 A
10 18 S
10 11 A
11 12 A
12 19 S
13 20 S
13 14 A
14 15 A
15 21 S
15 16 A
16 22 S
23 24 S
23 27 S
24 25 S
25 31 S
25 26 D
26 27 S
26 28 S
28 29 A
28 39 A
29 48 S
29 36 A
30 31 A
30 35 A
30 49 S
31 32 A
32 33 A
32 40 S
33 41 S
33 34 A
34 35 A
35 42 S
36 43 S
36 37 A
37 38 A
38 39 A
38 44 S
39 45 S
50 51 S
51 52 A
50 53 S
11 51 S
54 53 S
55 56 S
56 57 A
55 58 S
14 56 S
59 58 S
60 61 S
61 62 A
60 63 S
34 61 S
64 63 S
65 66 S
66 67 A
65 68 S
37 66 S
69 68 S
