66
mol to xyz file
C 1.4573 -0.4372 0.0009
S 2.3996 -1.9768 -0.1682
C 4.0341 -1.2108 -0.0351
C 4.0358 0.3304 0.0377
S 2.4033 1.1002 0.1704
C 5.3088 1.1987 -0.0679
C 6.6396 0.6111 -0.5729
C 6.6378 -1.4972 0.5751
C 5.3055 -2.0818 0.0703
C 5.2242 -3.5733 -0.3008
C 6.4966 -4.4396 -0.2987
C 7.8493 -3.8219 0.0958
C 7.9169 -2.3550 0.5575
C 7.9204 1.4664 -0.5563
C 7.8560 2.9341 -0.0954
C 6.5047 3.5545 0.2997
C 5.2307 2.6905 0.3027
H 4.2206 -4.0379 -0.5778
H 6.4373 -5.5403 -0.5896
H 8.9107 -1.9033 0.8860
H 8.9132 1.0126 -0.8847
H 6.4462 4.6552 0.5908
H 4.2283 3.1572 0.5799
C -0.0844 -0.4358 0.0004
S -1.0269 1.1034 0.1697
C -2.6613 0.3376 0.0363
C -2.6628 -1.2037 -0.0363
S -1.0300 -1.9734 -0.1686
C -3.9362 -2.0716 0.0691
C -5.2674 -1.4840 0.5736
C -5.2645 0.6242 -0.5753
C -3.9327 1.2086 -0.0690
C -3.8521 2.6998 0.3034
C -5.1245 3.5662 0.3009
C -6.4769 2.9484 -0.0951
C -6.5438 1.4817 -0.5581
C -6.5482 -2.3395 0.5568
C -6.4834 -3.8071 0.0960
C -5.1317 -4.4274 -0.2985
C -3.8580 -3.5632 -0.3013
H -2.8490 3.1644 0.5817
H -5.0654 4.6666 0.5927
H -7.5372 1.0300 -0.8878
H -7.5412 -1.8857 0.8850
H -5.0728 -5.5281 -0.5892
H -2.8555 -4.0299 -0.5784
H 6.6790 -0.4602 -0.9607
H 6.6753 -0.4258 0.9627
H -5.3071 -0.4126 0.9612
H -5.3058 -0.4465 -0.9646
N 8.863152605132925 -3.9863742991022693 0.11209999999999999
H 9.100961154312007 -4.352852120992408 -0.8176000000000001
H 9.008390120741433 -4.766520845630463 0.7645
X 9.828476859219903 -4.879280776423009 0.0837937088439282
N 8.62218127130364 3.6181432438841394 -0.0791
H 9.056624146980967 3.572118383501781 -1.0088000000000001
H 9.31969158926914 3.2397229400794036 0.5733
X 9.837069694910722 3.987737739529408 -0.08410350038715696
N -7.490756039124195 3.1128531298923736 -0.07880000000000001
H -7.728572240283651 3.479325986276151 -1.0085
H -7.636009844108338 3.8929966437009726 0.5736
X -8.456195655483311 4.005542330304253 -0.08314663041964326
N -7.249591897125997 -4.4911313419562475 0.1123
H -7.684034057801597 -4.445099732952038 -0.8174
H -7.947096336633506 -4.112700203085097 0.7647
X -8.464580746928617 -4.860513405629915 0.0844325514724794
0 23 D
0 4 S
0 1 S
1 2 S
2 3 D
2 8 S
3 4 S
3 5 S
5 6 A
5 16 A
6 13 A
6 46 S
7 12 A
7 47 S
7 8 A
8 9 A
9 17 S
9 10 A
10 18 S
10 11 A
11 12 A
12 19 S
13 20 S
13 14 A
14 15 A
15 21 S
15 16 A
16 22 S
23 24 S
23 27 S
24 25 S
25 31 S
25 26 D
26 27 S
26 28 S
28 29 A
28 39 A
29 48 S
29 36 A
30 31 A
30 35 A
30 49 S
31 32 A
32 33 A
32 40 S
33 41 S
33 34 A
34 35 A
35 42 S
36 43 S
36 37 A
37 38 A
38 39 A
38 44 S
39 45 S
50 51 S
50 52 S
11 51 S
53 52 S
54 55 S
54 56 S
14 55 S
57 56 S
58 59 S
58 60 S
34 59 S
61 60 S
62 63 S
62 64 S
37 63 S
65 64 S
