69
Properties=species:S:1:pos:R:3 mol=T to=T xyz=T file=T pbc="F F F"
C -1.61140000 0.55670000 -0.26850000
C -0.88100000 -0.78040000 -0.04550000
C 0.64220000 -0.78560000 0.21230000
C 1.38170000 0.54670000 0.43370000
C 0.65100000 1.88420000 0.21260000
C -0.87120000 1.88930000 -0.04960000
C 1.46520000 -2.08910000 0.14360000
C 0.90810000 -3.33120000 -0.57770000
C -1.17210000 -3.31630000 0.76420000
C -1.71200000 -2.07860000 0.02250000
C -1.69270000 3.19370000 0.01590000
C -1.13570000 4.43440000 0.73940000
C 0.94730000 4.41860000 -0.59620000
C 1.47980000 3.18400000 0.15510000
C 2.89140000 3.21350000 0.77080000
C 3.74230000 4.49490000 0.68980000
C 3.19360000 5.73890000 -0.03330000
C 1.79930000 5.69760000 -0.68370000
C -1.98480000 5.71390000 0.84590000
C -3.40380000 5.74720000 0.25090000
C -3.97120000 4.50200000 -0.45480000
C -3.12030000 3.22260000 -0.56200000
C 1.75710000 -4.61080000 -0.68160000
C 3.17590000 -4.64310000 -0.08570000
C 3.74610000 -3.39400000 0.61080000
C 2.89500000 -2.11440000 0.71530000
C -3.13290000 -2.10370000 -0.57200000
C -3.98900000 -3.38060000 -0.47370000
C -3.43520000 -4.62520000 0.24350000
C -2.02820000 -4.59150000 0.86620000
H -2.72620000 0.56030000 -0.50810000
H 2.49620000 0.54280000 0.67420000
H 3.30340000 2.28830000 1.29430000
H 4.77770000 4.52270000 1.16590000
H 1.39650000 6.61510000 -1.22720000
H -1.56720000 6.63310000 1.37520000
H -5.02450000 4.52450000 -0.89010000
H -3.54680000 2.29600000 -1.07100000
H 1.33780000 -5.53220000 -1.20560000
H 4.79970000 -3.41520000 1.04580000
H 3.32230000 -1.18520000 1.21910000
H -3.54920000 -1.17740000 -1.09010000
H -5.03500000 -3.40250000 -0.92660000
H -1.62200000 -5.50930000 1.40690000
H -0.13260000 -3.30050000 -1.04240000
H -0.13810000 -3.28620000 1.24330000
H -0.09570000 4.40210000 1.20510000
O -0.31015757 4.37633767 -1.20232762
H -0.26940285 4.34977862 -2.21474368
O 3.437036304819533 7.762550062509774 0.29400000000000004
C 3.946905805700161 6.567140721709837 -0.0461
O 5.097867201769245 6.4194900706489415 -0.33249999999999996
H 4.226357926589332 8.399377093505393 0.48680000000000007
X 4.412309136803456 7.62891197769181 -0.10063843376875908
O -5.132118684513481 6.82763293857675 0.5782
C -3.83334822736391 6.781095860504589 0.23810000000000003
O -3.2105232327941327 7.760178020560199 -0.048299999999999954
H -5.373094487988396 7.8127765586340585 0.7710000000000001
X -4.62302613343148 7.634294330725329 0.3500866034101384
O 4.905741691031421 -5.721092826492623 0.24160000000000004
C 3.606906853148324 -5.6763886443483145 -0.09849999999999999
O 2.985464178147422 -6.656348771949292 -0.38489999999999996
H 5.1481075079759435 -6.705895395933227 0.43440000000000006
X 4.393678490928329 -6.531795874456668 -0.1851824394744022
O -3.680429490634976 -6.648633543984806 0.5708
C -4.189239465216679 -5.452772845673264 0.23070000000000002
O -5.340069567002678 -5.304102314554187 -0.05569999999999997
H -4.4703151342777065 -7.284760858260109 0.7636000000000001
X -4.660711584894765 -6.509529194037633 0.3291423232189524
0 1 A
0 30 S
0 5 A
1 9 S
1 2 A
5 4 A
5 10 S
9 8 A
9 26 A
2 3 A
2 6 S
3 31 S
3 4 A
6 25 A
6 7 A
4 13 S
13 12 A
13 14 A
10 21 A
10 11 A
25 24 A
25 40 S
7 44 S
7 22 A
22 23 A
22 38 S
8 29 A
8 45 S
29 28 A
29 43 S
26 41 S
26 27 A
21 20 A
21 37 S
11 18 A
11 46 S
18 19 A
18 35 S
12 47 S
12 17 A
47 48 S
17 16 A
17 34 S
14 15 A
14 32 S
15 33 S
15 16 A
19 20 A
20 36 S
23 24 A
24 39 S
27 42 S
27 28 A
49 50 S
50 51 A
49 52 S
16 50 S
53 52 S
54 55 S
55 56 A
54 57 S
19 55 S
58 57 S
59 60 S
60 61 A
59 62 S
23 60 S
63 62 S
64 65 S
65 66 A
64 67 S
28 65 S
68 67 S
