64
mol to xyz file
C -1.6114 0.5567 -0.2685
C -0.8810 -0.7804 -0.0455
C 0.6422 -0.7856 0.2123
C 1.3817 0.5467 0.4337
C 0.6510 1.8842 0.2126
C -0.8712 1.8893 -0.0496
C 1.4652 -2.0891 0.1436
C 0.9081 -3.3312 -0.5777
C -1.1721 -3.3163 0.7642
C -1.7120 -2.0786 0.0225
C -1.6927 3.1937 0.0159
C -1.1357 4.4344 0.7394
C 0.9473 4.4186 -0.5962
C 1.4798 3.1840 0.1551
C 2.8914 3.2135 0.7708
C 3.7423 4.4949 0.6898
C 3.1936 5.7389 -0.0333
C 1.7993 5.6976 -0.6837
C -1.9848 5.7139 0.8459
C -3.4038 5.7472 0.2509
C -3.9712 4.5020 -0.4548
C -3.1203 3.2226 -0.5620
C 1.7571 -4.6108 -0.6816
C 3.1759 -4.6431 -0.0857
C 3.7461 -3.3940 0.6108
C 2.8950 -2.1144 0.7153
C -3.1329 -2.1037 -0.5720
C -3.9890 -3.3806 -0.4737
C -3.4352 -4.6252 0.2435
C -2.0282 -4.5915 0.8662
H -2.7262 0.5603 -0.5081
H 2.4962 0.5428 0.6742
H 3.3034 2.2883 1.2943
H 4.7777 4.5227 1.1659
H 1.3965 6.6151 -1.2272
H -1.5672 6.6331 1.3752
H -5.0245 4.5245 -0.8901
H -3.5468 2.2960 -1.0710
H 1.3378 -5.5322 -1.2056
H 4.7997 -3.4152 1.0458
H 3.3223 -1.1852 1.2191
H -3.5492 -1.1774 -1.0901
H -5.0350 -3.4025 -0.9266
H -1.6220 -5.5093 1.4069
H -0.1326 -3.3005 -1.0424
H -0.1381 -3.2862 1.2433
H -0.0957 4.4021 1.2051
H -0.0792 4.3841 -1.0910
N 3.4782263283687342 6.725782340099028 -0.017000000000000005
H 3.8705303053012052 6.918023047762539 -0.9467000000000001
H 4.270147421891497 6.776610989832317 0.6354
X 4.412309136803456 7.62891197769181 -0.10063843376875908
N -4.172450418062936 6.428467520737393 0.2672
H -4.177354703338913 6.865314001764689 -0.6625000000000001
H -3.8778721654300004 7.165316367568089 0.9196
X -4.62302613343148 7.634294330725329 0.3500866034101384
N 3.9448069175720653 -5.324078011473076 -0.0694
H 3.949875711616051 -5.7609226146524435 -0.9991000000000001
H 3.6505061708417132 -6.061037739323897 0.583
X 4.393678490928329 -6.531795874456668 -0.1851824394744022
N -3.7203531292755936 -5.611930253344012 0.2598
H -4.112759676903551 -5.803961504391094 -0.6699
H -4.512301244536173 -5.662336133310678 0.9122
X -4.660711584894765 -6.509529194037633 0.3291423232189524
0 1 A
0 30 S
0 5 A
1 9 S
1 2 A
2 3 A
2 6 S
3 31 S
3 4 A
4 13 S
4 5 A
5 10 S
6 25 A
6 7 A
7 44 S
7 22 A
8 29 A
8 45 S
8 9 A
9 26 A
10 21 A
10 11 A
11 18 A
11 46 S
12 47 S
12 17 A
12 13 A
13 14 A
14 15 A
14 32 S
15 33 S
15 16 A
16 17 A
17 34 S
18 19 A
18 35 S
19 20 A
20 36 S
20 21 A
21 37 S
22 23 A
22 38 S
23 24 A
24 39 S
24 25 A
25 40 S
26 41 S
26 27 A
27 42 S
27 28 A
28 29 A
29 43 S
48 49 S
48 50 S
16 49 S
51 50 S
52 53 S
52 54 S
19 53 S
55 54 S
56 57 S
56 58 S
23 57 S
59 58 S
60 61 S
60 62 S
28 61 S
63 62 S
