78
Properties=species:S:1:pos:R:3 mol=T to=T xyz=T file=T pbc="F F F"
C 6.08500000 -2.08140000 -0.04520000
C 5.31440000 -3.41410000 -0.05530000
C 5.31480000 4.58340000 0.03780000
C 6.08540000 3.25050000 0.02680000
C 7.62510000 3.24970000 0.02510000
C 8.39470000 4.58340000 0.02070000
C 7.62400000 5.91660000 0.01790000
C 6.08430000 5.91690000 0.03250000
C 6.08420000 -4.74780000 -0.05020000
C 7.62410000 -4.74760000 -0.03590000
C 8.39490000 -3.41430000 -0.03880000
C 7.62500000 -2.08060000 -0.04350000
H 8.19460000 2.26200000 0.02320000
H 9.53460000 4.58410000 0.01560000
Cl 5.40663566 7.09121690 0.03761400
H 5.51450000 -5.73530000 -0.05380000
H 9.53490000 -3.41500000 -0.03470000
H 8.19430000 -1.09280000 -0.04260000
C -1.61180000 0.58490000 -0.00930000
C -0.84070000 -3.41400000 -0.05570000
C -1.61110000 -2.08100000 -0.04560000
C -1.61080000 3.25050000 0.02700000
C -0.84000000 4.58320000 0.03730000
C -1.60940000 5.91720000 0.03220000
C -3.14930000 5.91740000 0.01750000
C -3.92020000 4.58410000 0.02100000
C -3.15050000 3.25020000 0.02540000
C -3.15090000 -2.08040000 -0.04330000
C -3.92060000 -3.41400000 -0.03900000
C -3.15030000 -4.74720000 -0.03600000
C -1.61060000 -4.74770000 -0.05070000
H -1.03940000 6.90450000 0.03610000
H -5.06020000 4.58480000 0.01590000
H -3.71990000 2.26240000 0.02460000
H -3.72050000 -1.09280000 -0.04230000
H -5.06060000 -3.41460000 -0.03460000
H -1.04110000 -5.73520000 -0.05510000
C -0.84150000 -0.74830000 -0.03140000
C 0.69810000 -0.74850000 -0.03250000
C 1.46740000 0.58470000 -0.00940000
C 0.69810000 1.91800000 0.01400000
C -0.84150000 1.91760000 0.01260000
C 3.77590000 1.91810000 0.01380000
C 3.00640000 0.58450000 -0.00920000
C 3.77560000 -0.74910000 -0.03250000
C 5.31530000 -0.74860000 -0.03070000
C 5.31560000 1.91770000 0.01260000
C 6.08560000 0.58460000 -0.00900000
H 4.17430000 -3.41290000 -0.06270000
H 4.17480000 4.58230000 0.04550000
H -2.75200000 0.58520000 -0.00970000
H 1.26830000 -1.73560000 -0.04960000
H 1.26810000 2.90530000 0.03180000
H 3.20560000 2.90520000 0.03180000
H 3.20540000 -1.73630000 -0.05030000
H 7.22580000 0.58460000 -0.00870000
H 0.29930000 -3.41300000 -0.06280000
H 0.30000000 4.58190000 0.04400000
O 8.281825154057017 7.845767405045468 0.3452
C 8.532695438782115 6.570606826827198 0.0051
O 9.628012401019197 6.187470294719218 -0.2813
H 9.186056406020503 8.305052864180139 0.538
X 9.064981940685659 7.621397091287554 0.01342862854625406
O 9.54945488907049 -5.416501607960669 0.2914
C 8.27287356789245 -5.660039141863225 -0.04870000000000001
O 7.883448353681312 -6.753136050895819 -0.33509999999999995
H 10.003535961745593 -6.323357533363501 0.4842000000000001
X 9.064932393555779 -6.452447198833621 -0.031118387305651033
O -5.074615345773813 6.586415417855124 0.34480000000000005
C -3.7980196309005407 6.829877490398676 0.004700000000000003
O -3.4085298025177257 7.9229513779224465 -0.28169999999999995
H -5.528642811830751 7.493298183192473 0.5376000000000001
X -4.589973599337541 7.622306936940012 0.012749224862606197
O -3.808201992686761 -6.67634120219822 0.2913
C -4.059021487293512 -5.4011706327741855 -0.048799999999999996
O -5.1543231882515075 -5.017990474260568 -0.33519999999999994
H -4.712451537371344 -7.135590645243854 0.4841000000000001
X -4.591130678362207 -6.4519478008403315 -0.03123807425500149
0 11 A
0 45 S
0 1 A
11 10 A
11 17 S
45 44 A
45 47 A
1 48 S
1 8 A
8 15 S
8 9 A
2 7 A
2 49 S
2 3 A
7 6 A
7 14 S
3 4 A
3 46 S
4 5 A
4 12 S
46 42 A
46 47 A
5 6 A
5 13 S
9 10 A
10 16 S
18 37 A
18 50 S
18 41 A
37 20 S
37 38 A
41 21 S
41 40 A
19 56 S
19 20 A
19 30 A
20 27 A
30 29 A
30 36 S
27 34 S
27 28 A
21 26 A
21 22 A
26 25 A
26 33 S
22 23 A
22 57 S
23 24 A
23 31 S
24 25 A
25 32 S
28 35 S
28 29 A
38 39 A
38 51 S
39 40 A
39 43 S
40 52 S
43 42 A
43 44 A
42 53 S
44 54 S
47 55 S
58 59 S
59 60 A
58 61 S
6 59 S
62 61 S
63 64 S
64 65 A
63 66 S
9 64 S
67 66 S
68 69 S
69 70 A
68 71 S
24 69 S
72 71 S
73 74 S
74 75 A
73 76 S
29 74 S
77 76 S
