74
mol to xyz file
C 6.0850 -2.0814 -0.0452
C 5.3144 -3.4141 -0.0553
C 5.3148 4.5834 0.0378
C 6.0854 3.2505 0.0268
C 7.6251 3.2497 0.0251
C 8.3947 4.5834 0.0207
C 7.6240 5.9166 0.0179
C 6.0843 5.9169 0.0325
C 6.0842 -4.7478 -0.0502
C 7.6241 -4.7476 -0.0359
C 8.3949 -3.4143 -0.0388
C 7.6250 -2.0806 -0.0435
H 8.1946 2.2620 0.0232
H 9.5346 4.5841 0.0156
H 5.5145 6.9043 0.0368
H 5.5145 -5.7353 -0.0538
H 9.5349 -3.4150 -0.0347
H 8.1943 -1.0928 -0.0426
C -1.6118 0.5849 -0.0093
C -0.8407 -3.4140 -0.0557
C -1.6111 -2.0810 -0.0456
C -1.6108 3.2505 0.0270
C -0.8400 4.5832 0.0373
C -1.6094 5.9172 0.0322
C -3.1493 5.9174 0.0175
C -3.9202 4.5841 0.0210
C -3.1505 3.2502 0.0254
C -3.1509 -2.0804 -0.0433
C -3.9206 -3.4140 -0.0390
C -3.1503 -4.7472 -0.0360
C -1.6106 -4.7477 -0.0507
H -1.0394 6.9045 0.0361
H -5.0602 4.5848 0.0159
H -3.7199 2.2624 0.0246
H -3.7205 -1.0928 -0.0423
H -5.0606 -3.4146 -0.0346
H -1.0411 -5.7352 -0.0551
C -0.8415 -0.7483 -0.0314
C 0.6981 -0.7485 -0.0325
C 1.4674 0.5847 -0.0094
C 0.6981 1.9180 0.0140
C -0.8415 1.9176 0.0126
C 3.7759 1.9181 0.0138
C 3.0064 0.5845 -0.0092
C 3.7756 -0.7491 -0.0325
C 5.3153 -0.7486 -0.0307
C 5.3156 1.9177 0.0126
C 6.0856 0.5846 -0.0090
H 4.1743 -3.4129 -0.0627
H 4.1748 4.5823 0.0455
H -2.7520 0.5852 -0.0097
H 1.2683 -1.7356 -0.0496
H 1.2681 2.9053 0.0318
H 3.2056 2.9052 0.0318
H 3.2054 -1.7363 -0.0503
H 7.2258 0.5846 -0.0087
H 0.2993 -3.4130 -0.0628
H 0.3000 4.5819 0.0440
N 8.119875366750243 6.816075692084179 0.034199999999999994
H 8.544985161789176 6.916776050385215 -0.8955000000000001
H 8.90342247600981 6.690471163618937 0.6866
X 9.064981940685659 7.621397091287554 0.01342862854625406
N 8.526534346919226 -5.238070334985177 -0.019600000000000003
H 8.62978319940898 -5.662568361434711 -0.9493
H 8.405632711745588 -6.022356867199227 0.6328
X 9.064932393555779 -6.452447198833621 -0.031118387305651033
N -4.051709830290267 6.407915441342564 0.0338
H -4.154937464686723 6.832418628017189 -0.8959
H -3.930768993757588 7.192195929470871 0.6862
X -4.589973599337541 7.622306936940012 0.012749224862606197
N -3.646217223556974 -5.646652615416478 -0.0197
H -4.071331704253914 -5.747333191009643 -0.9494
H -4.4297584869275735 -5.521011624511422 0.6327
X -4.591130678362207 -6.4519478008403315 -0.03123807425500149
0 11 A
0 45 S
0 1 A
1 48 S
1 8 A
2 7 A
2 49 S
2 3 A
3 4 A
3 46 S
4 5 A
4 12 S
5 6 A
5 13 S
6 7 A
7 14 S
8 15 S
8 9 A
9 10 A
10 16 S
10 11 A
11 17 S
18 37 A
18 50 S
18 41 A
19 56 S
19 20 A
19 30 A
20 27 A
20 37 S
21 26 A
21 22 A
21 41 S
22 23 A
22 57 S
23 24 A
23 31 S
24 25 A
25 32 S
25 26 A
26 33 S
27 34 S
27 28 A
28 35 S
28 29 A
29 30 A
30 36 S
37 38 A
38 39 A
38 51 S
39 40 A
39 43 S
40 41 A
40 52 S
42 46 A
42 53 S
42 43 A
43 44 A
44 45 A
44 54 S
45 47 A
46 47 A
47 55 S
58 59 S
58 60 S
6 59 S
61 60 S
62 63 S
62 64 S
9 63 S
65 64 S
66 67 S
66 68 S
24 67 S
69 68 S
70 71 S
70 72 S
29 71 S
73 72 S
