78
mol to xyz file
C 16.4897 16.3451 6.3480
C 15.2857 18.4605 6.3027
C 16.4986 20.6004 6.3623
C 15.2576 21.4033 6.4494
C 14.7117 21.7231 7.7012
C 13.5678 22.5206 7.7886
C 12.9556 23.0156 6.6267
C 13.5065 22.6962 5.3720
C 14.6532 21.9007 5.2859
H 14.2893 19.0131 6.2652
H 15.2014 21.3318 8.6534
H 13.1257 22.7733 8.8086
H 13.0179 23.0864 4.4188
H 15.0966 21.6570 4.2643
C 18.9470 19.1845 6.3480
C 20.1510 17.0692 6.3027
C 18.9381 14.9292 6.3623
C 20.1791 14.1264 6.4494
C 20.7251 13.8066 7.7012
C 21.8690 13.0091 7.7886
C 22.4812 12.5141 6.6267
C 21.9302 12.8335 5.3720
C 20.7836 13.6289 5.2859
H 21.1376 16.4992 6.2656
H 20.2354 14.1979 8.6534
H 22.3111 12.7564 8.8086
H 22.4189 12.4432 4.4188
H 20.3402 13.8726 4.2643
C 16.4897 19.1845 6.3480
C 15.2857 17.0692 6.3027
C 16.4986 14.9292 6.3623
C 15.2576 14.1264 6.4494
C 14.7117 13.8066 7.7012
C 13.5678 13.0091 7.7886
C 12.9556 12.5141 6.6267
C 13.5065 12.8335 5.3720
C 14.6532 13.6289 5.2859
H 14.2893 16.5166 6.2652
H 15.2014 14.1979 8.6534
H 13.1257 12.7564 8.8086
H 13.0179 12.4432 4.4188
H 15.0966 13.8726 4.2643
C 18.9470 16.3451 6.3480
C 20.1510 18.4605 6.3027
C 18.9381 20.6004 6.3623
C 20.1791 21.4033 6.4494
C 20.7251 21.7231 7.7012
C 21.8690 22.5206 7.7886
C 22.4812 23.0156 6.6267
C 21.9302 22.6962 5.3720
C 20.7836 21.9007 5.2859
H 21.1474 19.0131 6.2652
H 20.2354 21.3318 8.6534
H 22.3111 22.7733 8.8086
H 22.4189 23.0864 4.4188
H 20.3402 21.6570 4.2643
C 17.7184 17.0539 6.3495
C 17.7184 21.2846 6.3525
H 17.7325 22.4244 6.3362
C 17.7184 18.4757 6.3495
C 17.7184 14.2451 6.3525
H 17.7043 13.1053 6.3362
N 12.08004010385878 23.55257650625439 6.643
H 11.999124046667973 23.981891648881223 5.713299999999999
H 12.241776806515395 24.329470198476027 7.2954
X 11.334848337484638 24.55549606155046 6.6682493086809105
N 23.355922356695714 11.975760238606972 6.643
H 23.43616954846714 11.546319569581787 5.713299999999999
H 23.192975641264788 11.199119434933694 7.2954
X 24.10195166251536 10.974203938449541 6.6682493086809105
N 22.927374325966415 23.94073640661711 6.643
H 23.346371811864806 24.06442960291678 5.713299999999999
H 23.716597220562058 23.857972932511213 7.2954
X 24.10195166251536 24.55549606155046 6.6682493086809105
N 12.50848003678502 11.58942025084647 6.643
H 12.089356304488515 11.466155507201547 5.713299999999999
H 11.719342173045789 11.672990592553827 7.2954
X 11.334848337484638 10.97420393844954 6.6682493086809105
0 30 A
0 29 A
0 56 A
1 28 A
1 9 S
1 29 A
2 3 S
2 57 A
2 28 A
3 8 A
3 4 A
4 5 A
4 10 S
5 11 S
5 6 A
6 7 A
7 8 A
7 12 S
8 13 S
14 59 A
14 43 A
14 44 A
15 23 S
15 43 A
15 42 A
16 42 A
16 60 A
16 17 S
17 22 A
17 18 A
18 24 S
18 19 A
19 25 S
19 20 A
20 21 A
21 22 A
21 26 S
22 27 S
28 59 A
29 37 S
30 31 S
30 60 A
31 36 A
31 32 A
32 33 A
32 38 S
33 39 S
33 34 A
34 35 A
35 36 A
35 40 S
36 41 S
42 56 A
43 51 S
44 57 A
44 45 S
45 50 A
45 46 A
46 47 A
46 52 S
47 53 S
47 48 A
48 49 A
49 54 S
49 50 A
50 55 S
56 59 A
57 58 S
60 61 S
62 63 S
62 64 S
6 63 S
65 64 S
66 67 S
66 68 S
20 67 S
69 68 S
70 71 S
70 72 S
48 71 S
73 72 S
74 75 S
74 76 S
34 75 S
77 76 S
