34
Properties=species:S:1:pos:R:3 mol=T to=T xyz=T file=T pbc="F F F"
C 5.74100000 16.95550000 1.68900000
C 6.94600000 16.26250000 1.68900000
C 6.95200000 14.87250000 1.68900000
C 11.76900000 16.27750000 1.68900000
C 10.56500000 16.97050000 1.68900000
C 10.55900000 18.36050000 1.68900000
C 10.56800000 14.18450000 1.68900000
C 9.36200000 14.87550000 1.68900000
C 8.15800000 14.17950000 1.68900000
C 6.94200000 19.04750000 1.68900000
C 8.14900000 18.35750000 1.68900000
C 9.35300000 19.05250000 1.68900000
C 5.75000000 18.34150000 1.68900000
C 8.15100000 16.96350000 1.68900000
C 11.76100000 14.89150000 1.68900000
C 9.36000000 16.26950000 1.68900000
H 4.81000000 16.43550000 1.68900000
H 6.03300000 14.33450000 1.68900000
H 12.70100000 16.79750000 1.68900000
H 11.47800000 18.89850000 1.68900000
H 10.59000000 13.11850000 1.68900000
Br 8.15409928 12.10236654 1.68900000
H 6.92100000 20.11450000 1.68900000
H 9.35500000 20.11750000 1.68900000
O 3.71767006089665 18.49659941529281 2.0163
C 4.8897470774602505 19.05803139447049 1.6762000000000001
O 4.987146948581761 20.214329848635984 1.3898000000000001
H 3.0470812603102466 19.257446279338456 2.2091000000000003
X 3.798078823516895 19.4607289284458 1.689
O 13.793342112556454 14.736560180942497 2.0163
C 12.621309188000135 14.175036162083146 1.6762000000000001
O 12.524000119525379 13.018730062820246 1.3898000000000001
H 14.463990659213989 13.975765979554149 2.2091000000000003
X 13.712780003365818 13.772173566740186 1.689
0 16 S
0 12 A
0 1 A
12 9 A
1 2 A
1 13 A
2 8 A
2 17 S
13 10 A
13 15 A
8 7 A
8 21 S
3 14 A
3 18 S
3 4 A
14 6 A
4 5 A
4 15 A
5 19 S
5 11 A
15 7 A
11 10 A
11 23 S
6 20 S
6 7 A
9 10 A
9 22 S
24 25 S
25 26 A
24 27 S
12 25 S
28 27 S
29 30 S
30 31 A
29 32 S
14 30 S
33 32 S
