34
mol to xyz file
C 5.7410 16.9555 1.6890
C 6.9460 16.2625 1.6890
C 6.9520 14.8725 1.6890
C 11.7690 16.2775 1.6890
C 10.5650 16.9705 1.6890
C 10.5590 18.3605 1.6890
C 10.5680 14.1845 1.6890
C 9.3620 14.8755 1.6890
C 8.1580 14.1795 1.6890
C 6.9420 19.0475 1.6890
C 8.1490 18.3575 1.6890
C 9.3530 19.0525 1.6890
C 5.7500 18.3415 1.6890
C 8.1510 16.9635 1.6890
C 11.7610 14.8915 1.6890
C 9.3600 16.2695 1.6890
H 4.8100 16.4355 1.6890
H 6.0330 14.3345 1.6890
H 12.7010 16.7975 1.6890
H 11.4780 18.8985 1.6890
H 10.5900 13.1185 1.6890
H 8.1560 13.1145 1.6890
H 6.9210 20.1145 1.6890
H 9.3550 20.1175 1.6890
O 3.71767006089665 18.49659941529281 2.0163
C 4.8897470774602505 19.05803139447049 1.6762000000000001
O 4.987146948581761 20.214329848635984 1.3898000000000001
H 3.0470812603102466 19.257446279338456 2.2091000000000003
X 3.798078823516895 19.4607289284458 1.689
O 13.793342112556454 14.736560180942497 2.0163
C 12.621309188000135 14.175036162083146 1.6762000000000001
O 12.524000119525379 13.018730062820246 1.3898000000000001
H 14.463990659213989 13.975765979554149 2.2091000000000003
X 13.712780003365818 13.772173566740186 1.689
0 16 S
0 12 A
0 1 A
1 2 A
1 13 A
2 8 A
2 17 S
3 14 A
3 18 S
3 4 A
4 5 A
4 15 A
5 19 S
5 11 A
6 20 S
6 14 A
6 7 A
7 15 A
7 8 A
8 21 S
9 10 A
9 12 A
9 22 S
10 11 A
10 13 A
11 23 S
13 15 A
24 25 S
25 26 A
24 27 S
12 25 S
28 27 S
29 30 S
30 31 A
29 32 S
14 30 S
33 32 S
