30
Properties=species:S:1:pos:R:3 mol=T to=T xyz=T file=T pbc="F F F"
C 5.74100000 16.95550000 1.68900000
C 6.94600000 16.26250000 1.68900000
C 6.95200000 14.87250000 1.68900000
C 11.76900000 16.27750000 1.68900000
C 10.56500000 16.97050000 1.68900000
C 10.55900000 18.36050000 1.68900000
C 10.56800000 14.18450000 1.68900000
C 9.36200000 14.87550000 1.68900000
C 8.15800000 14.17950000 1.68900000
C 6.94200000 19.04750000 1.68900000
C 8.14900000 18.35750000 1.68900000
C 9.35300000 19.05250000 1.68900000
C 5.75000000 18.34150000 1.68900000
C 8.15100000 16.96350000 1.68900000
C 11.76100000 14.89150000 1.68900000
C 9.36000000 16.26950000 1.68900000
H 4.81000000 16.43550000 1.68900000
N 5.70964772 14.14520345 1.68900000
H 12.70100000 16.79750000 1.68900000
H 11.47800000 18.89850000 1.68900000
H 10.59000000 13.11850000 1.68900000
H 8.15600000 13.11450000 1.68900000
H 6.92100000 20.11450000 1.68900000
H 9.35500000 20.11750000 1.68900000
O 5.56211134 13.08572077 2.43057283
O 4.71354089 14.53526092 0.94750825
F 4.501154768085513 19.05833732933243 1.689
X 3.798078823516895 19.4607289284458 1.689
F 13.009901703953926 14.174761062965757 1.689
X 13.712780003365818 13.772173566740186 1.689
0 16 S
0 12 A
0 1 A
12 9 A
1 2 A
1 13 A
2 8 A
2 17 S
13 10 A
13 15 A
8 7 A
8 21 S
17 24 D
17 25 S
3 14 A
3 18 S
3 4 A
14 6 A
4 5 A
4 15 A
5 19 S
5 11 A
15 7 A
11 10 A
11 23 S
6 20 S
6 7 A
9 10 A
9 22 S
27 26 S
29 28 S
