32
mol to xyz file
C 5.7410 16.9555 1.6890
C 6.9460 16.2625 1.6890
C 6.9520 14.8725 1.6890
C 11.7690 16.2775 1.6890
C 10.5650 16.9705 1.6890
C 10.5590 18.3605 1.6890
C 10.5680 14.1845 1.6890
C 9.3620 14.8755 1.6890
C 8.1580 14.1795 1.6890
C 6.9420 19.0475 1.6890
C 8.1490 18.3575 1.6890
C 9.3530 19.0525 1.6890
C 5.7500 18.3415 1.6890
C 8.1510 16.9635 1.6890
C 11.7610 14.8915 1.6890
C 9.3600 16.2695 1.6890
H 4.8100 16.4355 1.6890
H 6.0330 14.3345 1.6890
H 12.7010 16.7975 1.6890
H 11.4780 18.8985 1.6890
H 10.5900 13.1185 1.6890
H 8.1560 13.1145 1.6890
H 6.9210 20.1145 1.6890
H 9.3550 20.1175 1.6890
N 4.7526184063576205 18.58681379224044 1.7053
H 4.544989884850311 18.971195499735337 0.7756
H 4.67046263571383 19.376100178382966 2.3577
X 3.798078823516895 19.4607289284458 1.689
N 12.758400515763332 14.646263152941824 1.7053
H 12.966058690338127 14.26189746439475 0.7756
H 12.840617176807761 13.856983107174349 2.3577
X 13.712780003365818 13.772173566740186 1.689
0 16 S
0 12 A
0 1 A
1 2 A
1 13 A
2 8 A
2 17 S
3 14 A
3 18 S
3 4 A
4 5 A
4 15 A
5 19 S
5 11 A
6 20 S
6 14 A
6 7 A
7 15 A
7 8 A
8 21 S
9 10 A
9 12 A
9 22 S
10 11 A
10 13 A
11 23 S
13 15 A
24 25 S
24 26 S
12 25 S
27 26 S
28 29 S
28 30 S
14 29 S
31 30 S
