84
mol to xyz file
C 0.8377 0.4695 -0.0015
C 1.6026 -0.8662 -0.0004
C 3.1396 -0.8727 0.0012
C 3.9152 0.4566 0.0019
C 3.1512 1.7934 0.0009
C 1.6124 1.8000 -0.0006
C 3.9259 3.1231 0.0016
C 5.4651 3.1142 0.0032
C 6.2298 1.7779 0.0040
C 5.4543 0.4482 0.0033
C 6.2166 -0.8896 0.0039
C 5.4386 -2.2179 0.0031
C 3.9002 -2.2102 0.0020
C -0.7014 0.4743 -0.0034
C -1.4664 1.8104 -0.0044
C -0.6908 3.1406 -0.0034
C 0.8483 3.1363 -0.0015
C -1.4749 -0.8570 -0.0043
C -0.7081 -2.1917 -0.0030
C 0.8309 -2.1971 -0.0011
H 3.3608 4.1133 0.0008
C 6.2399 4.4428 0.0039
H 7.3699 1.7736 0.0051
H 7.3567 -0.8971 0.0048
C 6.1971 -3.5557 0.0033
H 3.3242 -3.1942 0.0016
H -2.6063 1.8151 -0.0058
C -1.4538 4.4762 -0.0043
H 1.4217 4.1220 -0.0008
H -2.6147 -0.8548 -0.0058
C -1.4792 -3.5226 -0.0036
H 1.3989 -3.1859 -0.0001
C 5.4743 5.7784 0.0038
C 6.2495 7.1086 0.0049
C 7.7892 7.1015 0.0058
C 8.5543 5.7653 0.0057
C 7.7794 4.4351 0.0049
C 7.7365 -3.5700 0.0042
C 8.4923 -4.9116 0.0041
C 7.7072 -6.2365 0.0034
C 6.1675 -6.2209 0.0026
C 5.4123 -4.8796 0.0026
C -2.9929 4.4812 -0.0060
C -3.7569 5.8178 -0.0071
C -2.9806 7.1473 -0.0065
C -1.4408 7.1422 -0.0047
C -0.6768 5.8055 -0.0035
C -3.0191 -3.5233 -0.0055
C -3.7865 -4.8585 -0.0058
C -3.0128 -6.1902 -0.0041
C -1.4732 -6.1880 -0.0022
C -0.7065 -4.8534 -0.0020
H 4.3340 5.7819 0.0030
H 5.6843 8.0985 0.0049
H 9.6944 5.7616 0.0063
H 8.3446 3.4451 0.0050
H 8.3157 -2.5879 0.0045
H 9.6322 -4.9242 0.0046
H 5.5872 -7.2023 0.0023
H 4.2723 -4.8661 0.0021
H -3.5662 3.4957 -0.0065
H -4.8968 5.8233 -0.0084
H -0.8672 8.1275 -0.0042
H 0.4633 5.7994 -0.0022
H -3.5897 -2.5363 -0.0067
H -4.9265 -4.8615 -0.0072
H -0.9016 -7.1742 -0.0011
H 0.4336 -4.8498 -0.0007
N 8.186162367054036 8.0487960356419 0.022099999999999998
H 8.598083984617512 8.194327753778836 -0.9076000000000001
H 8.978643119687336 8.007603479205581 0.6745
X 9.114317050318647 8.912490151977579 0.007476084762068842
N 8.546465870620192 -6.82859939909793 0.019700000000000002
H 8.599642790636118 -7.262224946289997 -0.91
H 8.335168291050602 -7.593501943784528 0.6721
X 9.009884941933738 -8.063105570710523 0.004057496676779801
N -3.821114751690578 7.737625208838761 0.0098
H -3.8752075457260684 8.171137457377869 -0.9199
H -3.611433427319345 8.502972392938842 0.6622
X -4.290440768693759 8.969344134366215 -0.0081761217122765
N -3.4077975012972 -7.1383170149137545 0.012199999999999999
H -3.8194165051277116 -7.284702450273893 -0.9175000000000001
H -4.200361954507831 -7.0987675837303135 0.6646
X -4.331020070344441 -8.005638455302982 -0.004757525334284431
0 13 A
0 5 A
0 1 A
1 19 A
1 2 S
2 3 A
2 12 A
3 9 A
3 4 A
4 6 A
4 5 S
5 16 A
6 7 A
6 20 S
7 8 A
7 21 S
8 22 S
8 9 A
9 10 A
10 23 S
10 11 A
11 12 A
11 24 S
12 25 S
13 14 A
13 17 A
14 15 A
14 26 S
15 16 A
15 27 S
16 28 S
17 29 S
17 18 A
18 30 S
18 19 A
19 31 S
21 36 A
21 32 A
24 41 A
24 37 A
27 42 A
27 46 A
30 47 A
30 51 A
32 52 S
32 33 A
33 53 S
33 34 A
34 35 A
35 54 S
35 36 A
36 55 S
37 38 A
37 56 S
38 57 S
38 39 A
39 40 A
40 41 A
40 58 S
41 59 S
42 43 A
42 60 S
43 61 S
43 44 A
44 45 A
45 62 S
45 46 A
46 63 S
47 64 S
47 48 A
48 65 S
48 49 A
49 50 A
50 51 A
50 66 S
51 67 S
68 69 S
68 70 S
34 69 S
71 70 S
72 73 S
72 74 S
39 73 S
75 74 S
76 77 S
76 78 S
44 77 S
79 78 S
80 81 S
80 82 S
49 81 S
83 82 S
