88
mol to xyz file
C 0.8377 0.4695 -0.0015
C 1.6026 -0.8662 -0.0004
C 3.1396 -0.8727 0.0012
C 3.9152 0.4566 0.0019
C 3.1512 1.7934 0.0009
C 1.6124 1.8000 -0.0006
C 3.9259 3.1231 0.0016
C 5.4651 3.1142 0.0032
C 6.2298 1.7779 0.0040
C 5.4543 0.4482 0.0033
C 6.2166 -0.8896 0.0039
C 5.4386 -2.2179 0.0031
C 3.9002 -2.2102 0.0020
C -0.7014 0.4743 -0.0034
C -1.4664 1.8104 -0.0044
C -0.6908 3.1406 -0.0034
C 0.8483 3.1363 -0.0015
C -1.4749 -0.8570 -0.0043
C -0.7081 -2.1917 -0.0030
C 0.8309 -2.1971 -0.0011
H 3.3608 4.1133 0.0008
C 6.2399 4.4428 0.0039
H 7.3699 1.7736 0.0051
H 7.3567 -0.8971 0.0048
C 6.1971 -3.5557 0.0033
H 3.3242 -3.1942 0.0016
H -2.6063 1.8151 -0.0058
C -1.4538 4.4762 -0.0043
H 1.4217 4.1220 -0.0008
H -2.6147 -0.8548 -0.0058
C -1.4792 -3.5226 -0.0036
H 1.3989 -3.1859 -0.0001
C 5.4743 5.7784 0.0038
C 6.2495 7.1086 0.0049
C 7.7892 7.1015 0.0058
C 8.5543 5.7653 0.0057
C 7.7794 4.4351 0.0049
C 7.7365 -3.5700 0.0042
C 8.4923 -4.9116 0.0041
C 7.7072 -6.2365 0.0034
C 6.1675 -6.2209 0.0026
C 5.4123 -4.8796 0.0026
C -2.9929 4.4812 -0.0060
C -3.7569 5.8178 -0.0071
C -2.9806 7.1473 -0.0065
C -1.4408 7.1422 -0.0047
C -0.6768 5.8055 -0.0035
C -3.0191 -3.5233 -0.0055
C -3.7865 -4.8585 -0.0058
C -3.0128 -6.1902 -0.0041
C -1.4732 -6.1880 -0.0022
C -0.7065 -4.8534 -0.0020
H 4.3340 5.7819 0.0030
H 5.6843 8.0985 0.0049
H 9.6944 5.7616 0.0063
H 8.3446 3.4451 0.0050
H 8.3157 -2.5879 0.0045
H 9.6322 -4.9242 0.0046
H 5.5872 -7.2023 0.0023
H 4.2723 -4.8661 0.0021
H -3.5662 3.4957 -0.0065
H -4.8968 5.8233 -0.0084
H -0.8672 8.1275 -0.0042
H 0.4633 5.7994 -0.0022
H -3.5897 -2.5363 -0.0067
H -4.9265 -4.8615 -0.0072
H -0.9016 -7.1742 -0.0011
H 0.4336 -4.8498 -0.0007
O 8.25013898453012 9.086935988023875 0.3331
C 8.627688785767988 7.843381989363083 -0.006999999999999999
O 9.755920955941193 7.572079537869809 -0.2934
H 9.103723829855673 9.634631342970904 0.5259
X 9.114317050318647 8.912490151977579 0.007476084762068842
O 9.540736544848848 -7.126760944163985 0.33070000000000005
C 8.244394441122601 -7.2187802361989055 -0.009399999999999999
O 7.729361946335383 -8.258614059130847 -0.29579999999999995
H 9.88523951511936 -8.08064510561903 0.5235000000000001
X 9.009884941933738 -8.063105570710523 0.004057496676779801
O -4.815974885519014 8.033764798853326 0.32080000000000003
C -3.519825978054265 8.128466486683795 -0.019299999999999998
O -3.00694637197966 9.169363868596516 -0.30569999999999997
H -5.16245104371959 8.986934018771054 0.5136000000000001
X -4.290440768693759 8.969344134366215 -0.0081761217122765
O -3.469923879752006 -8.176517841776707 0.32320000000000004
C -3.849861996604263 -6.933691455122979 -0.0169
O -4.9786132884622045 -6.6645569699133915 -0.30329999999999996
H -4.322454963238041 -8.725852022116987 0.516
X -4.331020070344441 -8.005638455302982 -0.004757525334284431
0 13 A
0 5 A
0 1 A
1 19 A
1 2 S
2 3 A
2 12 A
3 9 A
3 4 A
4 6 A
4 5 S
5 16 A
6 7 A
6 20 S
7 8 A
7 21 S
8 22 S
8 9 A
9 10 A
10 23 S
10 11 A
11 12 A
11 24 S
12 25 S
13 14 A
13 17 A
14 15 A
14 26 S
15 16 A
15 27 S
16 28 S
17 29 S
17 18 A
18 30 S
18 19 A
19 31 S
21 36 A
21 32 A
24 41 A
24 37 A
27 42 A
27 46 A
30 47 A
30 51 A
32 52 S
32 33 A
33 53 S
33 34 A
34 35 A
35 54 S
35 36 A
36 55 S
37 38 A
37 56 S
38 57 S
38 39 A
39 40 A
40 41 A
40 58 S
41 59 S
42 43 A
42 60 S
43 61 S
43 44 A
44 45 A
45 62 S
45 46 A
46 63 S
47 64 S
47 48 A
48 65 S
48 49 A
49 50 A
50 51 A
50 66 S
51 67 S
68 69 S
69 70 A
68 71 S
34 69 S
72 71 S
73 74 S
74 75 A
73 76 S
39 74 S
77 76 S
78 79 S
79 80 A
78 81 S
44 79 S
82 81 S
83 84 S
84 85 A
83 86 S
49 84 S
87 86 S
