113
Properties=species:S:1:pos:R:3 mol=T to=T xyz=T file=T pbc="F F F"
C -4.41820000 2.67960000 -0.06900000
C -3.62700000 1.36750000 0.18420000
C -2.07740000 1.36840000 0.37720000
C -1.28680000 2.68130000 0.62800000
C -2.00100000 3.96070000 1.10510000
C -3.70340000 3.95930000 -0.54590000
C -1.29780000 0.03100000 0.40680000
C -1.92610000 -1.22500000 1.04110000
C -3.77610000 -1.22840000 -0.47010000
C -4.40580000 0.02980000 0.15780000
C -1.23920000 5.29890000 1.15630000
C 0.26500000 5.33680000 0.83720000
C 1.02410000 4.02370000 0.58950000
C 0.25120000 2.69590000 0.49850000
C -5.95610000 2.69370000 0.05720000
C -6.72870000 4.02150000 -0.03570000
C -5.96990000 5.33450000 -0.28320000
C -4.46510000 5.29740000 -0.59930000
C -1.16950000 -2.56590000 1.02060000
C 0.26050000 -2.63220000 0.45640000
C 0.92710000 -1.36090000 -0.09520000
C 0.13470000 -0.04220000 -0.15690000
C -5.83990000 -0.04150000 0.71790000
C -6.63240000 -1.35990000 0.65860000
C -5.96380000 -2.63360000 0.11390000
C -4.53220000 -2.56940000 -0.44580000
C -5.96470000 -5.29100000 -0.10210000
C -6.72140000 -3.97310000 0.14400000
C 1.01950000 -3.97100000 0.43250000
C 0.26450000 -5.28700000 0.69600000
C 1.00670000 6.68170000 0.73410000
C 0.22050000 8.00400000 0.79880000
C -5.92520000 8.00120000 -0.24590000
C -6.71200000 6.67910000 -0.18160000
C 1.01030000 -6.63160000 0.61220000
C 2.52710000 -6.65450000 0.34770000
C 3.28950000 -5.33420000 0.12500000
C 2.52920000 -3.99530000 0.12990000
C -8.23290000 -3.99540000 0.43690000
C -8.99370000 -5.33410000 0.45260000
C -8.22960000 -6.65590000 0.24990000
C -6.71130000 -6.63440000 -0.00790000
C 0.95060000 9.34310000 0.58490000
C 2.47480000 9.36260000 0.36280000
C 3.26540000 8.04200000 0.33340000
C 2.53000000 6.70050000 0.50850000
C -8.23550000 6.69860000 0.04230000
C -8.97070000 8.04040000 0.21330000
C -8.17930000 9.36100000 0.18550000
C -6.65480000 9.34060000 -0.03340000
H -1.79040000 6.25850000 1.43030000
H 2.15810000 4.03410000 0.47330000
H -7.86290000 4.03030000 0.07900000
C -3.73890833 6.56001017 -0.95897413
H -1.66880000 -3.50830000 1.42330000
H 2.00720000 -1.39510000 -0.45810000
H -7.71380000 -1.39170000 1.01820000
H -4.03120000 -3.51350000 -0.84220000
H -4.85300000 -5.27160000 -0.35370000
H -0.84590000 -5.26550000 0.95300000
H -0.90070000 7.99110000 1.00480000
H -4.80380000 7.98920000 -0.45060000
H 3.08540000 -7.64790000 0.31670000
H 3.08220000 -3.02290000 -0.09020000
H -8.78820000 -3.02120000 0.64200000
H -8.78780000 -7.64910000 0.29080000
H 3.01730000 10.35500000 0.22020000
H 3.11290000 5.72150000 0.47130000
H -8.81840000 5.71980000 0.08130000
H -8.72160000 10.35370000 0.32680000
H -3.09550000 3.91840000 1.42120000
H -2.60840000 3.91710000 -0.86020000
H -2.95500000 -1.16380000 1.52800000
H -2.74600000 -1.16360000 -0.95420000
H 0.81870000 1.72090000 0.33500000
H -6.52360000 1.71840000 0.21990000
H 0.61220000 0.88260000 -0.62210000
H -6.31850000 0.88480000 1.17880000
F -3.56880506 7.33089005 0.17577978
F -4.44473685 7.29343368 -1.89583241
F -2.49888509 6.24322120 -1.48168007
N 3.7162346375922657 8.964874330311039 0.34969999999999996
H 4.13585064911025 9.086452711932687 -0.5800000000000001
H 4.505030071135144 8.878131411165421 1.0021
X 5.020489666055014 9.159299073194532 0.2375357192958889
N 1.1142277869580202 10.357089569638278 0.6012000000000001
H 1.4805069372796127 10.595204004395377 -0.3285
H 1.8942528043230173 10.502978370732599 1.2536
X 1.2070845659118923 11.33863321231403 0.629839773828065
N -7.340544742695436 10.105258778714774 -0.0171
H -7.295485744376382 10.539802892321763 -0.9468000000000001
H -6.963675910152171 10.803608585801078 0.6353
X -6.9110927362513035 11.335706572091219 -0.08103483635218632
N -9.848647972692238 8.573463089367094 0.2296
H -9.931479475017536 9.002412785977937 -0.7001000000000001
H -9.690380551672652 9.35107095548202 0.882
X -10.726363533680761 9.157812534975841 0.30295941816613314
N -9.444738861125067 -6.256874536793795 0.4689
H -9.864381767990729 -6.378360053285839 -0.46080000000000004
H -10.233515078910948 -6.169957057220338 1.1213
X -10.750886287567106 -6.445353051999307 0.5834060555755967
N -6.880766847975714 -7.647430052583425 0.0084
H -7.248411739770913 -7.883430335500409 -0.9213
H -7.661619411910832 -7.788822567929722 0.6608
X -6.985762274905585 -8.628199004670197 -0.12976858259404225
N 4.166769647416756 -5.868378683327292 0.1413
H 4.2490558131134435 -6.29743332662455 -0.7884
H 4.007513879359361 -6.645784735748064 0.7937000000000001
X 5.046031055886575 -6.446730830389475 -0.009000970755931849
N 1.7006546460779097 -7.39209941659323 0.6285000000000001
H 1.6582233304745688 -7.826907976141188 -0.3012
H 1.3280142888409923 -8.092714670608116 1.2809
X 1.286307655389992 -8.624464587470758 0.7491139048497221
0 5 A
0 14 A
0 1 S
5 71 S
5 17 A
14 15 A
14 75 S
1 9 S
1 2 D
9 8 A
9 22 A
2 3 S
2 6 S
3 4 A
3 13 A
6 7 A
6 21 A
4 70 S
4 10 A
13 12 A
13 74 S
10 11 A
10 50 S
17 16 A
17 53 S
7 72 S
7 18 A
21 20 A
21 76 S
18 19 A
18 54 S
8 25 A
8 73 S
25 24 A
25 57 S
22 77 S
22 23 A
11 30 S
11 12 A
30 45 A
30 31 A
12 51 S
15 52 S
15 16 A
16 33 S
33 32 A
33 46 A
53 78 S
53 79 S
53 80 S
19 28 S
19 20 A
28 29 A
28 37 A
20 55 S
23 56 S
23 24 A
24 27 S
27 26 A
27 38 A
26 58 S
26 41 A
41 40 A
38 64 S
38 39 A
29 59 S
29 34 A
37 36 A
37 63 S
34 35 A
45 44 A
45 67 S
31 42 A
31 60 S
42 43 A
32 49 A
32 61 S
49 48 A
46 47 A
46 68 S
35 62 S
35 36 A
39 40 A
40 65 S
43 44 A
43 66 S
47 48 A
48 69 S
81 82 S
81 83 S
44 82 S
84 83 S
85 86 S
85 87 S
42 86 S
88 87 S
89 90 S
89 91 S
49 90 S
92 91 S
93 94 S
93 95 S
47 94 S
96 95 S
97 98 S
97 99 S
39 98 S
100 99 S
101 102 S
101 103 S
41 102 S
104 103 S
105 106 S
105 107 S
36 106 S
108 107 S
109 110 S
109 111 S
34 110 S
112 111 S
