138
Properties=species:S:1:pos:R:3 mol=T to=T xyz=T file=T pbc="F F F"
C 3.73210000 4.65120000 0.57140000
C 4.51310000 5.97560000 0.52060000
C 6.01730000 5.97000000 0.20220000
C 6.74620000 4.63580000 -0.04220000
C 5.95080000 3.31520000 -0.04760000
C 6.78480000 7.30280000 0.13710000
C 6.00870000 8.63140000 0.19230000
C 6.76450000 9.96970000 0.10810000
C 8.30140000 9.98030000 0.02070000
C 9.08020000 8.65180000 -0.00880000
C 8.32020000 7.31190000 0.01760000
H 3.98060000 6.96070000 0.73550000
H 7.86920000 4.62720000 -0.23920000
H 6.48410000 2.32990000 -0.25830000
H 4.87240000 8.62350000 0.28330000
H 8.86320000 10.97160000 -0.01440000
H 8.89480000 6.32840000 -0.03030000
C -2.54890000 -0.65780000 0.11590000
C -2.64750000 -3.30080000 0.57550000
C -3.34730000 -1.97680000 0.21300000
C -4.86690000 -1.96540000 -0.04370000
C -5.66190000 -3.28620000 -0.03700000
C -4.93290000 -4.62020000 0.20860000
C -3.42830000 -4.62550000 0.52650000
C -4.92660000 -7.28180000 0.20240000
C -5.70100000 -5.95250000 0.14390000
C -7.23570000 -5.95950000 0.02160000
C -7.99770000 -7.29800000 -0.00570000
C -7.22120000 -8.62760000 0.02640000
C -5.68400000 -8.61900000 0.11720000
H -5.40060000 -0.98050000 -0.25540000
H -6.78460000 -3.27810000 -0.23450000
H -2.89550000 -5.61000000 0.74240000
H -3.79020000 -7.27530000 0.29380000
H -7.80880000 -4.97490000 -0.02600000
H -7.78480000 -9.61790000 -0.01190000
C -3.34670000 3.32910000 -0.11960000
C -2.64660000 4.65280000 -0.48210000
C -4.86680000 3.31820000 0.13500000
C -5.66230000 4.63850000 0.12380000
C -4.93350000 5.97210000 -0.12260000
C -3.42820000 5.97710000 -0.43730000
C -4.92730000 8.63430000 -0.11160000
C -5.70200000 7.30460000 -0.05870000
C -7.23730000 7.31180000 0.06020000
C -7.99870000 8.65090000 0.09100000
C -7.22200000 9.98030000 0.05920000
C -5.68480000 9.97140000 -0.02210000
H -5.40020000 2.33370000 0.34960000
H -6.78520000 4.63040000 0.32060000
H -2.89510000 6.96150000 -0.65300000
H -3.79050000 8.62780000 -0.19880000
H -7.81040000 6.32750000 0.10820000
H -7.78470000 10.97070000 0.10560000
C -2.54850000 2.00990000 -0.02150000
C -1.00380000 2.01000000 0.02700000
C -0.23150000 0.67520000 0.04760000
C -1.00450000 -0.65920000 0.06760000
C -3.31430000 0.67630000 0.04740000
C 3.63150000 -0.65950000 -0.02100000
C 4.42930000 -1.97900000 -0.11690000
C 3.72950000 -3.30290000 -0.47980000
C 4.51070000 -4.62750000 -0.43230000
C 6.01560000 -4.62200000 -0.11620000
C 6.74450000 -3.28810000 0.12950000
C 5.94910000 -1.96780000 0.13850000
C 6.78390000 -5.95390000 -0.05110000
C 6.00970000 -7.28370000 -0.10110000
C 6.76760000 -8.62050000 -0.01470000
C 8.30550000 -8.62870000 0.06200000
C 9.08160000 -7.29860000 0.09340000
C 8.31920000 -5.96020000 0.06530000
H 3.97790000 -5.61210000 -0.64750000
H 7.86730000 -3.28000000 0.32690000
H 6.48240000 -0.98300000 0.35270000
H 4.87290000 -7.27760000 -0.18530000
H 8.86910000 -9.61870000 0.10440000
H 8.89210000 -4.97560000 0.11310000
C 4.39780000 0.67400000 0.04700000
C 2.08670000 -0.65990000 0.02740000
C 1.31470000 0.67490000 0.04710000
C 2.08770000 2.00910000 0.06670000
C 3.63250000 2.00790000 0.11510000
C 4.43140000 3.32680000 0.21020000
C -0.22530000 3.33640000 0.07530000
C 1.30980000 3.33590000 0.01870000
C -0.22690000 -1.98620000 0.01910000
C 1.30820000 -1.98640000 0.07580000
H -4.45460000 0.67660000 0.04670000
H 5.53800000 0.67360000 0.04780000
H 2.64120000 4.65260000 0.89500000
H -1.55650000 -3.30170000 0.89850000
H -1.55470000 4.65370000 -0.80250000
H 2.63810000 -3.30390000 -0.80170000
Br -1.24232381 5.14040216 0.23572884
H 1.86700000 4.32270000 -0.06920000
H -0.78380000 -2.97310000 -0.06870000
H 1.86490000 -2.97370000 0.16370000
O 9.795575269278434 10.560375131899399 0.3185
C 10.008097179207969 9.278265605454834 -0.0216
O 11.091433320617694 8.862458372815134 -0.308
H 10.713171566877866 10.992340784042963 0.5113000000000001
X 10.926105893345447 9.682252421056056 -0.035771980993492575
O 7.041279951378866 11.98905971746361 0.4354
C 7.531363798136195 10.785403527703618 0.09530000000000001
O 8.679733382068564 10.618789756667141 -0.19109999999999996
H 7.84099761439861 12.612781570098452 0.6282000000000001
X 7.21872029522517 11.862334724753538 0.11986268045624847
O -8.704701417210785 -9.209692916255626 0.3216
C -8.922841908322674 -7.928527382010552 -0.018500000000000003
O -10.007990491600447 -7.517473368272403 -0.30489999999999995
H -9.620395208737795 -9.645677056057625 0.5144000000000001
X -9.84366485610207 -8.32669218783772 -0.03327470947634567
O -5.965151201693988 -10.637755758328884 0.4445
C -6.45262799306903 -9.43304136152328 0.1044
O -7.600634168090979 -9.263941769236729 -0.18199999999999997
H -6.76621734373192 -11.259744766335025 0.6373000000000001
X -6.138553063850794 -10.511804693718386 0.1288810708813656
O -7.438353504686849 11.010375897795742 0.3052
C -6.138843203538144 10.994775346254157 -0.0349
O -5.539506425840539 11.988409220927847 -0.3213
H -7.7027169667619795 11.989502677084129 0.49800000000000005
X -6.139234789805525 11.863943103002583 -0.02009586171906217
O -9.942663427477465 9.263620982691197 0.4183
C -8.673690844338644 9.544118724646435 0.07819999999999999
O -8.316165573372736 10.648060992439799 -0.20819999999999997
H -10.4228817509883 10.156911334012896 0.6111000000000001
X -9.844410304495925 9.680356464088574 0.12633989230585765
O 11.025257170630722 -7.912291789953051 0.4207
C 9.756144655321592 -8.192155727404328 0.0806
O 9.398068081365917 -9.295919296826769 -0.20579999999999998
H 11.505029293643211 -8.805821867779247 0.6135
X 10.92743674818863 -8.326826554154476 0.12734764996897205
O 8.522054149993064 -9.657954310113038 0.31260000000000004
C 7.2225308044334255 -9.64348108153453 -0.027499999999999997
O 6.624056223447958 -10.637634503252864 -0.31389999999999996
H 8.787266898978533 -10.63685138732574 0.5054000000000001
X 7.2220945463691955 -10.513177470178519 -0.01200236257799772
0 83 A
0 90 S
0 1 A
83 4 A
83 82 S
1 2 A
1 11 S
2 5 S
2 3 A
5 6 A
5 10 A
3 12 S
3 4 A
4 13 S
6 14 S
6 7 A
10 9 A
10 16 S
7 8 A
8 9 A
8 15 S
17 19 S
17 57 A
17 58 A
19 18 A
19 20 A
57 56 A
57 86 A
58 54 A
58 88 S
18 91 S
18 23 A
23 22 A
23 32 S
20 30 S
20 21 A
21 31 S
21 22 A
22 25 S
25 24 A
25 26 A
24 33 S
24 29 A
29 28 A
26 27 A
26 34 S
27 28 A
28 35 S
36 37 A
36 54 S
36 38 A
37 92 S
37 41 A
54 55 A
38 39 A
38 48 S
41 40 A
41 50 S
39 49 S
39 40 A
40 43 S
43 42 A
43 44 A
42 47 A
42 51 S
47 46 A
44 45 A
44 52 S
45 46 A
46 53 S
55 84 A
55 56 A
84 94 S
84 85 A
56 80 A
80 79 A
80 81 A
86 96 S
86 87 A
59 60 S
59 79 A
59 78 A
60 61 A
60 65 A
79 87 A
78 89 S
78 82 A
61 93 S
61 62 A
65 64 A
65 74 S
62 72 S
62 63 A
63 66 S
63 64 A
66 67 A
66 71 A
64 73 S
67 75 S
67 68 A
71 70 A
71 77 S
68 69 A
69 70 A
69 76 S
82 81 A
87 97 S
81 85 A
85 95 S
98 99 S
99 100 A
98 101 S
9 99 S
102 101 S
103 104 S
104 105 A
103 106 S
7 104 S
107 106 S
108 109 S
109 110 A
108 111 S
27 109 S
112 111 S
113 114 S
114 115 A
113 116 S
29 114 S
117 116 S
118 119 S
119 120 A
118 121 S
47 119 S
122 121 S
123 124 S
124 125 A
123 126 S
45 124 S
127 126 S
128 129 S
129 130 A
128 131 S
70 129 S
132 131 S
133 134 S
134 135 A
133 136 S
68 134 S
137 136 S
