117
Properties=species:S:1:pos:R:3 mol=T to=T xyz=T file=T pbc="F F F"
C 3.73210000 4.65120000 0.57140000
C 4.51310000 5.97560000 0.52060000
C 6.01730000 5.97000000 0.20220000
C 6.74620000 4.63580000 -0.04220000
C 5.95080000 3.31520000 -0.04760000
C 6.78480000 7.30280000 0.13710000
C 6.00870000 8.63140000 0.19230000
C 6.76450000 9.96970000 0.10810000
C 8.30140000 9.98030000 0.02070000
C 9.08020000 8.65180000 -0.00880000
C 8.32020000 7.31190000 0.01760000
H 3.98060000 6.96070000 0.73550000
H 7.86920000 4.62720000 -0.23920000
H 6.48410000 2.32990000 -0.25830000
H 4.87240000 8.62350000 0.28330000
H 8.86320000 10.97160000 -0.01440000
H 8.89480000 6.32840000 -0.03030000
C -2.54890000 -0.65780000 0.11590000
C -2.64750000 -3.30080000 0.57550000
C -3.34730000 -1.97680000 0.21300000
C -4.86690000 -1.96540000 -0.04370000
C -5.66190000 -3.28620000 -0.03700000
C -4.93290000 -4.62020000 0.20860000
C -3.42830000 -4.62550000 0.52650000
C -4.92660000 -7.28180000 0.20240000
C -5.70100000 -5.95250000 0.14390000
C -7.23570000 -5.95950000 0.02160000
C -7.99770000 -7.29800000 -0.00570000
C -7.22120000 -8.62760000 0.02640000
C -5.68400000 -8.61900000 0.11720000
H -5.40060000 -0.98050000 -0.25540000
H -6.78460000 -3.27810000 -0.23450000
H -2.89550000 -5.61000000 0.74240000
H -3.79020000 -7.27530000 0.29380000
H -7.80880000 -4.97490000 -0.02600000
H -7.78480000 -9.61790000 -0.01190000
C -3.34670000 3.32910000 -0.11960000
C -2.64660000 4.65280000 -0.48210000
C -4.86680000 3.31820000 0.13500000
C -5.66230000 4.63850000 0.12380000
C -4.93350000 5.97210000 -0.12260000
C -3.42820000 5.97710000 -0.43730000
C -4.92730000 8.63430000 -0.11160000
C -5.70200000 7.30460000 -0.05870000
C -7.23730000 7.31180000 0.06020000
C -7.99870000 8.65090000 0.09100000
C -7.22200000 9.98030000 0.05920000
C -5.68480000 9.97140000 -0.02210000
H -5.40020000 2.33370000 0.34960000
H -6.78520000 4.63040000 0.32060000
H -2.89510000 6.96150000 -0.65300000
C -3.37947873 8.62544986 -0.23032802
H -7.81040000 6.32750000 0.10820000
H -7.78470000 10.97070000 0.10560000
C -2.54850000 2.00990000 -0.02150000
C -1.00380000 2.01000000 0.02700000
C -0.23150000 0.67520000 0.04760000
C -1.00450000 -0.65920000 0.06760000
C -3.31430000 0.67630000 0.04740000
C 3.63150000 -0.65950000 -0.02100000
C 4.42930000 -1.97900000 -0.11690000
C 3.72950000 -3.30290000 -0.47980000
C 4.51070000 -4.62750000 -0.43230000
C 6.01560000 -4.62200000 -0.11620000
C 6.74450000 -3.28810000 0.12950000
C 5.94910000 -1.96780000 0.13850000
C 6.78390000 -5.95390000 -0.05110000
C 6.00970000 -7.28370000 -0.10110000
C 6.76760000 -8.62050000 -0.01470000
C 8.30550000 -8.62870000 0.06200000
C 9.08160000 -7.29860000 0.09340000
C 8.31920000 -5.96020000 0.06530000
H 3.97790000 -5.61210000 -0.64750000
H 7.86730000 -3.28000000 0.32690000
H 6.48240000 -0.98300000 0.35270000
H 4.87290000 -7.27760000 -0.18530000
H 8.86910000 -9.61870000 0.10440000
H 8.89210000 -4.97560000 0.11310000
C 4.39780000 0.67400000 0.04700000
C 2.08670000 -0.65990000 0.02740000
C 1.31470000 0.67490000 0.04710000
C 2.08770000 2.00910000 0.06670000
C 3.63250000 2.00790000 0.11510000
C 4.43140000 3.32680000 0.21020000
C -0.22530000 3.33640000 0.07530000
C 1.30980000 3.33590000 0.01870000
C -0.22690000 -1.98620000 0.01910000
C 1.30820000 -1.98640000 0.07580000
H -4.45460000 0.67660000 0.04670000
H 5.53800000 0.67360000 0.04780000
H 2.64120000 4.65260000 0.89500000
H -1.55650000 -3.30170000 0.89850000
H -1.55470000 4.65370000 -0.80250000
H 2.63810000 -3.30390000 -0.80170000
H -0.78190000 4.32370000 0.16310000
H 1.86700000 4.32270000 -0.06920000
H -0.78380000 -2.97310000 -0.06870000
H 1.86490000 -2.97370000 0.16370000
H -3.12533929 8.87654952 -1.12136526
H -3.04889845 7.74453954 -0.03953324
H -3.00684059 9.24968972 0.39662052
F 10.132523361950893 9.634696592675123 -0.0088
X 10.926105893345447 9.682252421056056 -0.035771980993492575
F 7.56570931445832 11.166167218282736 0.1081
X 7.21872029522517 11.862334724753538 0.11986268045624847
F -9.050080100597635 -8.280835842786633 -0.0057
X -9.84366485610207 -8.32669218783772 -0.03327470947634567
F -6.485240398674508 -9.81544640228132 0.1172
X -6.138553063850794 -10.511804693718386 0.1288810708813656
F -6.4861219783035855 11.167791765722093 -0.0221
X -6.139234789805525 11.863943103002583 -0.02009586171906217
F -9.05112549287198 9.633687236360533 0.091
X -9.844410304495925 9.680356464088574 0.12633989230585765
F 10.13405094571974 -8.281359979269418 0.0934
X 10.92743674818863 -8.326826554154476 0.12734764996897205
F 7.568883024801605 -9.816917855167997 -0.0147
X 7.2220945463691955 -10.513177470178519 -0.01200236257799772
0 83 A
0 90 S
0 1 A
83 4 A
83 82 S
1 2 A
1 11 S
2 5 S
2 3 A
5 6 A
5 10 A
3 12 S
3 4 A
4 13 S
6 14 S
6 7 A
10 9 A
10 16 S
7 8 A
8 9 A
8 15 S
17 19 S
17 57 A
17 58 A
19 18 A
19 20 A
57 56 A
57 86 A
58 54 A
58 88 S
18 91 S
18 23 A
23 22 A
23 32 S
20 30 S
20 21 A
21 31 S
21 22 A
22 25 S
25 24 A
25 26 A
24 33 S
24 29 A
29 28 A
26 27 A
26 34 S
27 28 A
28 35 S
36 37 A
36 54 S
36 38 A
37 92 S
37 41 A
54 55 A
38 39 A
38 48 S
41 40 A
41 50 S
39 49 S
39 40 A
40 43 S
43 42 A
43 44 A
42 47 A
42 51 S
47 46 A
51 98 S
51 99 S
51 100 S
44 45 A
44 52 S
45 46 A
46 53 S
55 84 A
55 56 A
84 94 S
84 85 A
56 80 A
80 79 A
80 81 A
86 96 S
86 87 A
59 60 S
59 79 A
59 78 A
60 61 A
60 65 A
79 87 A
78 89 S
78 82 A
61 93 S
61 62 A
65 64 A
65 74 S
62 72 S
62 63 A
63 66 S
63 64 A
66 67 A
66 71 A
64 73 S
67 75 S
67 68 A
71 70 A
71 77 S
68 69 A
69 70 A
69 76 S
82 81 A
87 97 S
81 85 A
85 95 S
102 101 S
104 103 S
106 105 S
108 107 S
110 109 S
112 111 S
114 113 S
116 115 S
