114
mol to xyz file
C 3.7321 4.6512 0.5714
C 4.5131 5.9756 0.5206
C 6.0173 5.9700 0.2022
C 6.7462 4.6358 -0.0422
C 5.9508 3.3152 -0.0476
C 6.7848 7.3028 0.1371
C 6.0087 8.6314 0.1923
C 6.7645 9.9697 0.1081
C 8.3014 9.9803 0.0207
C 9.0802 8.6518 -0.0088
C 8.3202 7.3119 0.0176
H 3.9806 6.9607 0.7355
H 7.8692 4.6272 -0.2392
H 6.4841 2.3299 -0.2583
H 4.8724 8.6235 0.2833
H 8.8632 10.9716 -0.0144
H 8.8948 6.3284 -0.0303
C -2.5489 -0.6578 0.1159
C -2.6475 -3.3008 0.5755
C -3.3473 -1.9768 0.2130
C -4.8669 -1.9654 -0.0437
C -5.6619 -3.2862 -0.0370
C -4.9329 -4.6202 0.2086
C -3.4283 -4.6255 0.5265
C -4.9266 -7.2818 0.2024
C -5.7010 -5.9525 0.1439
C -7.2357 -5.9595 0.0216
C -7.9977 -7.2980 -0.0057
C -7.2212 -8.6276 0.0264
C -5.6840 -8.6190 0.1172
H -5.4006 -0.9805 -0.2554
H -6.7846 -3.2781 -0.2345
H -2.8955 -5.6100 0.7424
H -3.7902 -7.2753 0.2938
H -7.8088 -4.9749 -0.0260
H -7.7848 -9.6179 -0.0119
C -3.3467 3.3291 -0.1196
C -2.6466 4.6528 -0.4821
C -4.8668 3.3182 0.1350
C -5.6623 4.6385 0.1238
C -4.9335 5.9721 -0.1226
C -3.4282 5.9771 -0.4373
C -4.9273 8.6343 -0.1116
C -5.7020 7.3046 -0.0587
C -7.2373 7.3118 0.0602
C -7.9987 8.6509 0.0910
C -7.2220 9.9803 0.0592
C -5.6848 9.9714 -0.0221
H -5.4002 2.3337 0.3496
H -6.7852 4.6304 0.3206
H -2.8951 6.9615 -0.6530
H -3.7905 8.6278 -0.1988
H -7.8104 6.3275 0.1082
H -7.7847 10.9707 0.1056
C -2.5485 2.0099 -0.0215
C -1.0038 2.0100 0.0270
C -0.2315 0.6752 0.0476
C -1.0045 -0.6592 0.0676
C -3.3143 0.6763 0.0474
C 3.6315 -0.6595 -0.0210
C 4.4293 -1.9790 -0.1169
C 3.7295 -3.3029 -0.4798
C 4.5107 -4.6275 -0.4323
C 6.0156 -4.6220 -0.1162
C 6.7445 -3.2881 0.1295
C 5.9491 -1.9678 0.1385
C 6.7839 -5.9539 -0.0511
C 6.0097 -7.2837 -0.1011
C 6.7676 -8.6205 -0.0147
C 8.3055 -8.6287 0.0620
C 9.0816 -7.2986 0.0934
C 8.3192 -5.9602 0.0653
H 3.9779 -5.6121 -0.6475
H 7.8673 -3.2800 0.3269
H 6.4824 -0.9830 0.3527
H 4.8729 -7.2776 -0.1853
H 8.8691 -9.6187 0.1044
H 8.8921 -4.9756 0.1131
C 4.3978 0.6740 0.0470
C 2.0867 -0.6599 0.0274
C 1.3147 0.6749 0.0471
C 2.0877 2.0091 0.0667
C 3.6325 2.0079 0.1151
C 4.4314 3.3268 0.2102
C -0.2253 3.3364 0.0753
C 1.3098 3.3359 0.0187
C -0.2269 -1.9862 0.0191
C 1.3082 -1.9864 0.0758
H -4.4546 0.6766 0.0467
H 5.5380 0.6736 0.0478
H 2.6412 4.6526 0.8950
H -1.5565 -3.3017 0.8985
H -1.5547 4.6537 -0.8025
H 2.6381 -3.3039 -0.8017
H -0.7819 4.3237 0.1631
H 1.8670 4.3227 -0.0692
H -0.7838 -2.9731 -0.0687
H 1.8649 -2.9737 0.1637
F 10.132523361950893 9.634696592675123 -0.0088
X 10.926105893345447 9.682252421056056 -0.035771980993492575
F 7.56570931445832 11.166167218282736 0.1081
X 7.21872029522517 11.862334724753538 0.11986268045624847
F -9.050080100597635 -8.280835842786633 -0.0057
X -9.84366485610207 -8.32669218783772 -0.03327470947634567
F -6.485240398674508 -9.81544640228132 0.1172
X -6.138553063850794 -10.511804693718386 0.1288810708813656
F -6.4861219783035855 11.167791765722093 -0.0221
X -6.139234789805525 11.863943103002583 -0.02009586171906217
F -9.05112549287198 9.633687236360533 0.091
X -9.844410304495925 9.680356464088574 0.12633989230585765
F 10.13405094571974 -8.281359979269418 0.0934
X 10.92743674818863 -8.326826554154476 0.12734764996897205
F 7.568883024801605 -9.816917855167997 -0.0147
X 7.2220945463691955 -10.513177470178519 -0.01200236257799772
0 83 A
0 90 S
0 1 A
1 2 A
1 11 S
2 5 S
2 3 A
3 12 S
3 4 A
4 13 S
4 83 A
5 6 A
5 10 A
6 14 S
6 7 A
7 8 A
8 9 A
8 15 S
9 10 A
10 16 S
17 19 S
17 57 A
17 58 A
18 91 S
18 19 A
18 23 A
19 20 A
20 30 S
20 21 A
21 31 S
21 22 A
22 23 A
22 25 S
23 32 S
24 25 A
24 33 S
24 29 A
25 26 A
26 27 A
26 34 S
27 28 A
28 35 S
28 29 A
36 37 A
36 54 S
36 38 A
37 92 S
37 41 A
38 39 A
38 48 S
39 49 S
39 40 A
40 41 A
40 43 S
41 50 S
42 47 A
42 51 S
42 43 A
43 44 A
44 45 A
44 52 S
45 46 A
46 53 S
46 47 A
54 55 A
54 58 A
55 84 A
55 56 A
56 80 A
56 57 A
57 86 A
58 88 S
59 60 S
59 79 A
59 78 A
60 61 A
60 65 A
61 93 S
61 62 A
62 72 S
62 63 A
63 66 S
63 64 A
64 73 S
64 65 A
65 74 S
66 67 A
66 71 A
67 75 S
67 68 A
68 69 A
69 70 A
69 76 S
70 71 A
71 77 S
78 89 S
78 82 A
79 80 A
79 87 A
80 81 A
81 82 A
81 85 A
82 83 S
84 94 S
84 85 A
85 95 S
86 96 S
86 87 A
87 97 S
99 98 S
101 100 S
103 102 S
105 104 S
107 106 S
109 108 S
111 110 S
113 112 S
