78
Properties=species:S:1:pos:R:3 mol=T to=T xyz=T file=T pbc="F F F"
C 30.16620000 42.60150000 28.40100000
C 26.63580000 42.60150000 28.40100000
C 29.28670000 41.66870000 29.28670000
C 28.40100000 42.60150000 30.16620000
H 27.72860000 41.96300000 30.82940000
H 29.06880000 43.25000000 30.82430000
C 29.28670000 43.53430000 27.51530000
C 28.40100000 42.60150000 26.63580000
H 27.72860000 43.24000000 25.97260000
H 29.06880000 41.95300000 25.97770000
C 27.51530000 41.66870000 27.51530000
H 25.97770000 43.23490000 27.71890000
C 28.40100000 40.80130000 28.40100000
H 27.73820000 40.14320000 29.05460000
H 29.05760000 40.14010000 27.74440000
C 28.40100000 44.40160000 28.40100000
H 25.97260000 41.96300000 29.07340000
C 27.51530000 43.53430000 29.28670000
H 27.73820000 45.05980000 27.74740000
F 29.18192115 45.18811105 29.18192115
H 30.82940000 41.96300000 27.72860000
H 30.82430000 43.23490000 29.08310000
C 29.94670000 41.01400000 29.94670000
C 29.94670000 44.18900000 26.85530000
C 26.85530000 41.01400000 26.85530000
C 26.85530000 44.18900000 29.94670000
C 31.24350000 44.79500000 27.42320000
C 32.13500000 45.67940000 26.53180000
C 31.72960000 45.95780000 25.07240000
C 30.43270000 45.35180000 24.50450000
C 29.54130000 44.46740000 25.39600000
C 25.55850000 44.79500000 29.37880000
C 24.66700000 45.67940000 30.27020000
C 25.07240000 45.95780000 31.72960000
C 26.36930000 45.35180000 32.29750000
C 27.26070000 44.46740000 31.40600000
C 31.24350000 40.40800000 29.37880000
C 32.13500000 39.52360000 30.27020000
C 31.72960000 39.24520000 31.72960000
C 30.43270000 39.85120000 32.29750000
C 29.54130000 40.73560000 31.40600000
C 25.55850000 40.40800000 27.42320000
C 24.66700000 39.52360000 26.53180000
C 25.07240000 39.24520000 25.07240000
C 26.36930000 39.85120000 24.50450000
C 27.26070000 40.73560000 25.39600000
H 31.54360000 44.58890000 28.50350000
H 33.09500000 46.12800000 26.95220000
H 30.13260000 45.55790000 23.42420000
H 28.58120000 44.01880000 24.97560000
H 25.25840000 44.58890000 28.29840000
H 23.70700000 46.12800000 29.84980000
H 26.66940000 45.55790000 33.37780000
H 28.22080000 44.01880000 31.82640000
H 31.54360000 40.61410000 28.29840000
H 33.09500000 39.07500000 29.84980000
H 30.13260000 39.64510000 33.37780000
H 28.58120000 41.18420000 31.82640000
H 25.25840000 40.61410000 28.50360000
H 23.70700000 39.07500000 26.95220000
H 26.66940000 39.64510000 23.42420000
H 28.22080000 41.18420000 24.97560000
N 32.07900760047113 46.92364845018927 25.0887
H 32.483190053703325 47.089465953786465 24.159
H 32.8725562386716 46.921879605884115 25.7411
X 33.02732313893854 47.25931005264058 23.77467686106146
N 24.354241737803754 46.69210076292979 31.745900000000002
H 24.38047422589562 47.128186484512725 30.816200000000002
H 24.70057015525146 47.406088996213896 32.3983
X 23.77467686106146 47.25931005264058 33.02732313893854
N 32.514622727635896 38.58286457357686 31.745900000000002
H 32.53017025501196 38.14626730561417 30.816200000000002
H 32.23808683920483 37.839056485149726 32.3983
X 33.02732313893854 37.943689947359424 33.02732313893854
N 24.65009674553793 38.3089260757285 25.0887
H 24.234409060748025 38.17452872190779 24.159
H 23.8590109997827 38.37142337857341 25.7411
X 23.77467686106146 37.943689947359424 23.77467686106146
0 21 S
0 20 S
0 6 S
0 2 S
6 7 S
6 23 S
6 15 S
2 12 S
2 22 S
2 3 S
1 17 S
1 10 S
1 11 S
1 16 S
17 3 S
17 15 S
17 25 S
10 7 S
10 24 S
10 12 S
12 14 S
12 13 S
22 40 A
22 36 A
3 5 S
3 4 S
7 9 S
7 8 S
23 30 A
23 26 A
15 19 S
15 18 S
24 45 A
24 41 A
25 35 A
25 31 A
40 39 A
40 57 S
36 54 S
36 37 A
30 29 A
30 49 S
26 46 S
26 27 A
45 44 A
45 61 S
41 58 S
41 42 A
35 34 A
35 53 S
31 50 S
31 32 A
27 47 S
27 28 A
28 29 A
29 48 S
32 51 S
32 33 A
33 34 A
34 52 S
37 55 S
37 38 A
38 39 A
39 56 S
42 59 S
42 43 A
43 44 A
44 60 S
62 63 S
62 64 S
28 63 S
65 64 S
66 67 S
66 68 S
33 67 S
69 68 S
70 71 S
70 72 S
38 71 S
73 72 S
74 75 S
74 76 S
43 75 S
77 76 S
