83
Properties=species:S:1:pos:R:3 mol=T to=T xyz=T file=T pbc="F F F"
C 30.16620000 42.60150000 28.40100000
C 26.63580000 42.60150000 28.40100000
C 29.28670000 41.66870000 29.28670000
C 28.40100000 42.60150000 30.16620000
H 27.72860000 41.96300000 30.82940000
H 29.06880000 43.25000000 30.82430000
C 29.28670000 43.53430000 27.51530000
C 28.40100000 42.60150000 26.63580000
H 27.72860000 43.24000000 25.97260000
H 29.06880000 41.95300000 25.97770000
C 27.51530000 41.66870000 27.51530000
H 25.97770000 43.23490000 27.71890000
C 28.40100000 40.80130000 28.40100000
H 27.73820000 40.14320000 29.05460000
H 29.05760000 40.14010000 27.74440000
C 28.40100000 44.40160000 28.40100000
H 25.97260000 41.96300000 29.07340000
C 27.51530000 43.53430000 29.28670000
H 27.73820000 45.05980000 27.74740000
H 29.05760000 45.06290000 29.05760000
H 30.82940000 41.96300000 27.72860000
H 30.82430000 43.23490000 29.08310000
C 29.94670000 41.01400000 29.94670000
C 29.94670000 44.18900000 26.85530000
C 26.85530000 41.01400000 26.85530000
C 26.85530000 44.18900000 29.94670000
C 31.24350000 44.79500000 27.42320000
C 32.13500000 45.67940000 26.53180000
C 31.72960000 45.95780000 25.07240000
C 30.43270000 45.35180000 24.50450000
C 29.54130000 44.46740000 25.39600000
C 25.55850000 44.79500000 29.37880000
C 24.66700000 45.67940000 30.27020000
C 25.07240000 45.95780000 31.72960000
C 26.36930000 45.35180000 32.29750000
C 27.26070000 44.46740000 31.40600000
C 31.24350000 40.40800000 29.37880000
C 32.13500000 39.52360000 30.27020000
C 31.72960000 39.24520000 31.72960000
C 30.43270000 39.85120000 32.29750000
C 29.54130000 40.73560000 31.40600000
C 25.55850000 40.40800000 27.42320000
C 24.66700000 39.52360000 26.53180000
C 25.07240000 39.24520000 25.07240000
C 26.36930000 39.85120000 24.50450000
C 27.26070000 40.73560000 25.39600000
H 31.54360000 44.58890000 28.50350000
H 33.09500000 46.12800000 26.95220000
H 30.13260000 45.55790000 23.42420000
C 28.24447770 43.86146887 24.82815905
H 25.25840000 44.58890000 28.29840000
H 23.70700000 46.12800000 29.84980000
H 26.66940000 45.55790000 33.37780000
H 28.22080000 44.01880000 31.82640000
H 31.54360000 40.61410000 28.29840000
H 33.09500000 39.07500000 29.84980000
H 30.13260000 39.64510000 33.37780000
H 28.58120000 41.18420000 31.82640000
H 25.25840000 40.61410000 28.50360000
H 23.70700000 39.07500000 26.95220000
H 26.66940000 39.64510000 23.42420000
H 28.22080000 41.18420000 24.97560000
N 26.97263669 43.26669448 24.27190656
O 31.634233814359252 47.99380739208784 25.3997
C 32.33519798683903 46.89944930220147 25.059599999999996
O 33.49471181666041 46.94462151105748 24.7732
H 32.307077626398865 48.752660799934176 25.592499999999998
X 33.02732313893854 47.25931005264058 23.77467686106146
O 23.14666519090123 46.625607049248 32.0569
C 24.4231078691141 46.86987020495664 31.7168
O 24.811911659317317 47.96318830264076 31.430400000000002
H 22.69206869750676 47.53220470984142 32.249700000000004
X 23.77467686106146 47.25931005264058 33.02732313893854
O 33.59192459764576 38.41684747661182 32.0569
C 32.299391682675605 38.281462604049366 31.7168
O 31.819474336880813 37.224962631874604 31.430400000000002
H 33.96818186887417 37.47503658484652 32.249700000000004
X 33.02732313893854 37.943689947359424 33.02732313893854
O 25.452733858675952 37.24275974722224 25.3997
C 24.605036988621737 38.22783863568767 25.059599999999996
O 23.463356370985785 38.02028570914991 24.7732
H 24.893121687401496 36.396939726318564 25.592499999999998
X 23.77467686106146 37.943689947359424 23.77467686106146
0 21 S
0 20 S
0 6 S
0 2 S
6 7 S
6 23 S
6 15 S
2 12 S
2 22 S
2 3 S
1 17 S
1 10 S
1 11 S
1 16 S
17 3 S
17 15 S
17 25 S
10 7 S
10 24 S
10 12 S
12 14 S
12 13 S
22 40 A
22 36 A
3 5 S
3 4 S
7 9 S
7 8 S
23 30 A
23 26 A
15 19 S
15 18 S
24 45 A
24 41 A
25 35 A
25 31 A
40 39 A
40 57 S
36 54 S
36 37 A
30 29 A
30 49 S
26 46 S
26 27 A
45 44 A
45 61 S
41 58 S
41 42 A
35 34 A
35 53 S
31 50 S
31 32 A
27 47 S
27 28 A
28 29 A
29 48 S
49 62 T
32 51 S
32 33 A
33 34 A
34 52 S
37 55 S
37 38 A
38 39 A
39 56 S
42 59 S
42 43 A
43 44 A
44 60 S
63 64 S
64 65 A
63 66 S
28 64 S
67 66 S
68 69 S
69 70 A
68 71 S
33 69 S
72 71 S
73 74 S
74 75 A
73 76 S
38 74 S
77 76 S
78 79 S
79 80 A
78 81 S
43 79 S
82 81 S
