70
mol to xyz file
C 30.1662 42.6015 28.4010
C 26.6358 42.6015 28.4010
C 29.2867 41.6687 29.2867
C 28.4010 42.6015 30.1662
H 27.7286 41.9630 30.8294
H 29.0688 43.2500 30.8243
C 29.2867 43.5343 27.5153
C 28.4010 42.6015 26.6358
H 27.7286 43.2400 25.9726
H 29.0688 41.9530 25.9777
C 27.5153 41.6687 27.5153
H 25.9777 43.2349 27.7189
C 28.4010 40.8013 28.4010
H 27.7382 40.1432 29.0546
H 29.0576 40.1401 27.7444
C 28.4010 44.4016 28.4010
H 25.9726 41.9630 29.0734
C 27.5153 43.5343 29.2867
H 27.7382 45.0598 27.7474
H 29.0576 45.0629 29.0576
H 30.8294 41.9630 27.7286
H 30.8243 43.2349 29.0831
C 29.9467 41.0140 29.9467
C 29.9467 44.1890 26.8553
C 26.8553 41.0140 26.8553
C 26.8553 44.1890 29.9467
C 31.2435 44.7950 27.4232
C 32.1350 45.6794 26.5318
C 31.7296 45.9578 25.0724
C 30.4327 45.3518 24.5045
C 29.5413 44.4674 25.3960
C 25.5585 44.7950 29.3788
C 24.6670 45.6794 30.2702
C 25.0724 45.9578 31.7296
C 26.3693 45.3518 32.2975
C 27.2607 44.4674 31.4060
C 31.2435 40.4080 29.3788
C 32.1350 39.5236 30.2702
C 31.7296 39.2452 31.7296
C 30.4327 39.8512 32.2975
C 29.5413 40.7356 31.4060
C 25.5585 40.4080 27.4232
C 24.6670 39.5236 26.5318
C 25.0724 39.2452 25.0724
C 26.3693 39.8512 24.5045
C 27.2607 40.7356 25.3960
H 31.5436 44.5889 28.5035
H 33.0950 46.1280 26.9522
H 30.1326 45.5579 23.4242
H 28.5812 44.0188 24.9756
H 25.2584 44.5889 28.2984
H 23.7070 46.1280 29.8498
H 26.6694 45.5579 33.3778
H 28.2208 44.0188 31.8264
H 31.5436 40.6141 28.2984
H 33.0950 39.0750 29.8498
H 30.1326 39.6451 33.3778
H 28.5812 41.1842 31.8264
H 25.2584 40.6141 28.5036
H 23.7070 39.0750 26.9522
H 26.6694 39.6451 23.4242
H 28.2208 41.1842 24.9756
F 32.54224452473038 47.146530014101494 25.0724
X 33.02732313893854 47.25931005264058 23.77467686106146
F 24.22797985670093 47.12417249264151 31.7296
X 23.77467686106146 47.25931005264058 33.02732313893854
F 32.574020143299066 38.07882750735848 31.7296
X 33.02732313893854 37.943689947359424 33.02732313893854
F 24.259755475269625 38.0564699858985 25.0724
X 23.77467686106146 37.943689947359424 23.77467686106146
0 21 S
0 20 S
0 6 S
0 2 S
1 17 S
1 10 S
1 11 S
1 16 S
2 12 S
2 22 S
2 3 S
3 5 S
3 17 S
3 4 S
6 7 S
6 23 S
6 15 S
7 9 S
7 8 S
7 10 S
10 24 S
10 12 S
12 14 S
12 13 S
15 19 S
15 18 S
15 17 S
17 25 S
22 40 A
22 36 A
23 30 A
23 26 A
24 45 A
24 41 A
25 35 A
25 31 A
26 46 S
26 27 A
27 47 S
27 28 A
28 29 A
29 48 S
29 30 A
30 49 S
31 50 S
31 32 A
32 51 S
32 33 A
33 34 A
34 52 S
34 35 A
35 53 S
36 54 S
36 37 A
37 55 S
37 38 A
38 39 A
39 56 S
39 40 A
40 57 S
41 58 S
41 42 A
42 59 S
42 43 A
43 44 A
44 45 A
44 60 S
45 61 S
63 62 S
65 64 S
67 66 S
69 68 S
