82
mol to xyz file
C 30.1662 42.6015 28.4010
C 26.6358 42.6015 28.4010
C 29.2867 41.6687 29.2867
C 28.4010 42.6015 30.1662
H 27.7286 41.9630 30.8294
H 29.0688 43.2500 30.8243
C 29.2867 43.5343 27.5153
C 28.4010 42.6015 26.6358
H 27.7286 43.2400 25.9726
H 29.0688 41.9530 25.9777
C 27.5153 41.6687 27.5153
H 25.9777 43.2349 27.7189
C 28.4010 40.8013 28.4010
H 27.7382 40.1432 29.0546
H 29.0576 40.1401 27.7444
C 28.4010 44.4016 28.4010
H 25.9726 41.9630 29.0734
C 27.5153 43.5343 29.2867
H 27.7382 45.0598 27.7474
H 29.0576 45.0629 29.0576
H 30.8294 41.9630 27.7286
H 30.8243 43.2349 29.0831
C 29.9467 41.0140 29.9467
C 29.9467 44.1890 26.8553
C 26.8553 41.0140 26.8553
C 26.8553 44.1890 29.9467
C 31.2435 44.7950 27.4232
C 32.1350 45.6794 26.5318
C 31.7296 45.9578 25.0724
C 30.4327 45.3518 24.5045
C 29.5413 44.4674 25.3960
C 25.5585 44.7950 29.3788
C 24.6670 45.6794 30.2702
C 25.0724 45.9578 31.7296
C 26.3693 45.3518 32.2975
C 27.2607 44.4674 31.4060
C 31.2435 40.4080 29.3788
C 32.1350 39.5236 30.2702
C 31.7296 39.2452 31.7296
C 30.4327 39.8512 32.2975
C 29.5413 40.7356 31.4060
C 25.5585 40.4080 27.4232
C 24.6670 39.5236 26.5318
C 25.0724 39.2452 25.0724
C 26.3693 39.8512 24.5045
C 27.2607 40.7356 25.3960
H 31.5436 44.5889 28.5035
H 33.0950 46.1280 26.9522
H 30.1326 45.5579 23.4242
H 28.5812 44.0188 24.9756
H 25.2584 44.5889 28.2984
H 23.7070 46.1280 29.8498
H 26.6694 45.5579 33.3778
H 28.2208 44.0188 31.8264
H 31.5436 40.6141 28.2984
H 33.0950 39.0750 29.8498
H 30.1326 39.6451 33.3778
H 28.5812 41.1842 31.8264
H 25.2584 40.6141 28.5036
H 23.7070 39.0750 26.9522
H 26.6694 39.6451 23.4242
H 28.2208 41.1842 24.9756
O 31.634233814359252 47.99380739208784 25.3997
C 32.33519798683903 46.89944930220147 25.059599999999996
O 33.49471181666041 46.94462151105748 24.7732
H 32.307077626398865 48.752660799934176 25.592499999999998
X 33.02732313893854 47.25931005264058 23.77467686106146
O 23.14666519090123 46.625607049248 32.0569
C 24.4231078691141 46.86987020495664 31.7168
O 24.811911659317317 47.96318830264076 31.430400000000002
H 22.69206869750676 47.53220470984142 32.249700000000004
X 23.77467686106146 47.25931005264058 33.02732313893854
O 33.59192459764576 38.41684747661182 32.0569
C 32.299391682675605 38.281462604049366 31.7168
O 31.819474336880813 37.224962631874604 31.430400000000002
H 33.96818186887417 37.47503658484652 32.249700000000004
X 33.02732313893854 37.943689947359424 33.02732313893854
O 25.452733858675952 37.24275974722224 25.3997
C 24.605036988621737 38.22783863568767 25.059599999999996
O 23.463356370985785 38.02028570914991 24.7732
H 24.893121687401496 36.396939726318564 25.592499999999998
X 23.77467686106146 37.943689947359424 23.77467686106146
0 21 S
0 20 S
0 6 S
0 2 S
1 17 S
1 10 S
1 11 S
1 16 S
2 12 S
2 22 S
2 3 S
3 5 S
3 17 S
3 4 S
6 7 S
6 23 S
6 15 S
7 9 S
7 8 S
7 10 S
10 24 S
10 12 S
12 14 S
12 13 S
15 19 S
15 18 S
15 17 S
17 25 S
22 40 A
22 36 A
23 30 A
23 26 A
24 45 A
24 41 A
25 35 A
25 31 A
26 46 S
26 27 A
27 47 S
27 28 A
28 29 A
29 48 S
29 30 A
30 49 S
31 50 S
31 32 A
32 51 S
32 33 A
33 34 A
34 52 S
34 35 A
35 53 S
36 54 S
36 37 A
37 55 S
37 38 A
38 39 A
39 56 S
39 40 A
40 57 S
41 58 S
41 42 A
42 59 S
42 43 A
43 44 A
44 45 A
44 60 S
45 61 S
62 63 S
63 64 A
62 65 S
28 63 S
66 65 S
67 68 S
68 69 A
67 70 S
33 68 S
71 70 S
72 73 S
73 74 A
72 75 S
38 73 S
76 75 S
77 78 S
78 79 A
77 80 S
43 78 S
81 80 S
