42
mol to xyz file
C 2.1959 -3.0300 -0.0000
C 2.9659 -1.6963 -0.0000
C 4.5059 -1.6963 -0.0000
C 5.2759 -3.0300 -0.0000
C 4.5059 -4.3637 -0.0000
C 2.9659 -4.3637 -0.0000
C 5.2759 -5.6973 -0.0000
C 6.8159 -5.6973 -0.0000
C 7.5859 -4.3637 -0.0000
C 6.8159 -3.0300 -0.0000
C 7.5859 -1.6963 -0.0000
C 6.8159 -0.3626 -0.0000
C 5.2759 -0.3626 -0.0000
C 2.1959 -5.6973 -0.0000
C 2.9659 -7.0310 -0.0000
C 4.5059 -7.0310 -0.0000
H 8.7259 -1.6963 -0.0000
H 7.3859 0.6247 -0.0000
H 4.7059 0.6247 -0.0000
H 1.0559 -5.6973 -0.0000
H 2.3959 -8.0183 -0.0000
H 5.0759 -8.0183 -0.0000
O 0.19880535149550171 -3.4374724222750523 0.32730000000000004
C 1.1722900883283838 -2.5764858560886705 -0.012799999999999999
O 0.949263399024808 -1.4377269062409486 -0.29919999999999997
H -0.654530855046664 -2.88938975642598 0.5201
X -0.010186700019420014 -2.669706339180723 -0.0
O 1.0575254620666783 -0.9803897870767722 0.32730000000000004
C 2.3396945078291562 -0.7682272595453136 -0.012799999999999999
O 2.755805382197897 0.31499228894524167 -0.29919999999999997
H 0.6258170282393496 -0.06267244597312116 0.5201
X 1.5508455860191148 0.034073172929589335 -0.0
O 9.582994648504497 -3.9562275777249467 0.32730000000000004
C 8.609509911671616 -4.81721414391133 -0.012799999999999999
O 8.832536600975192 -5.955973093759052 -0.29919999999999997
H 10.436330855046663 -4.504310243574018 0.5201
X 9.79198670001942 -4.723993660819276 -0.0
O 8.72429236870914 -6.413162680304481 0.32730000000000004
C 7.442128607733374 -6.62535714309859 -0.012799999999999999
O 7.026044713533655 -7.708587055438347 -0.29919999999999997
H 9.15602366023462 -7.330869268445669 0.5201
X 8.2309814087528 -7.427747196955606 -0.0
1 0 A
2 1 A
3 2 A
4 3 A
5 0 A
5 4 A
6 4 A
7 6 A
8 7 A
9 8 A
9 3 A
10 9 A
11 10 A
12 11 A
12 2 A
13 5 A
14 13 A
15 14 A
15 6 A
16 10 S
17 11 S
18 12 S
19 13 S
20 14 S
21 15 S
22 23 S
23 24 A
22 25 S
0 23 S
26 25 S
27 28 S
28 29 A
27 30 S
28 1 S
31 30 S
32 33 S
33 34 A
32 35 S
33 8 S
36 35 S
37 38 S
38 39 A
37 40 S
38 7 S
41 40 S
