31
Properties=species:S:1:pos:R:3 mol=T to=T xyz=T file=T pbc="F F F"
C 2.19590000 -3.03000000 -0.00000000
C 2.96590000 -1.69630000 -0.00000000
C 4.50590000 -1.69630000 -0.00000000
C 5.27590000 -3.03000000 -0.00000000
C 4.50590000 -4.36370000 -0.00000000
C 2.96590000 -4.36370000 -0.00000000
C 5.27590000 -5.69730000 -0.00000000
C 6.81590000 -5.69730000 -0.00000000
C 7.58590000 -4.36370000 -0.00000000
C 6.81590000 -3.03000000 -0.00000000
C 7.58590000 -1.69630000 -0.00000000
C 6.81590000 -0.36260000 -0.00000000
C 5.27590000 -0.36260000 -0.00000000
C 2.19590000 -5.69730000 -0.00000000
C 2.96590000 -7.03100000 -0.00000000
C 4.50590000 -7.03100000 -0.00000000
C 9.12581686 -1.69630000 0.00000000
H 7.38590000 0.62470000 -0.00000000
H 4.70590000 0.62470000 -0.00000000
H 1.05590000 -5.69730000 -0.00000000
H 2.39590000 -8.01830000 -0.00000000
H 5.07590000 -8.01830000 -0.00000000
N 10.63603283 -1.69668303 0.00073491
F 0.7981005287904785 -2.6841289137751136 0.0
X -0.010186700019420014 -2.669706339180723 -0.0
F 1.9674790200733097 -0.6586942382377456 0.0
X 1.5508455860191148 0.034073172929589335 -0.0
F 8.98369947120952 -4.709571086224886 0.0
X 9.79198670001942 -4.723993660819276 -0.0
F 7.814346894096436 -6.734880825607904 0.0
X 8.2309814087528 -7.427747196955606 -0.0
0 1 A
0 5 A
1 2 A
2 3 A
2 12 A
3 4 A
3 9 A
4 5 A
4 6 A
5 13 A
6 7 A
6 15 A
7 8 A
8 9 A
9 10 A
10 11 A
10 16 S
11 12 A
11 17 S
12 18 S
13 14 A
13 19 S
14 15 A
14 20 S
15 21 S
16 22 T
24 23 S
26 25 S
28 27 S
30 29 S
