30
mol to xyz file
C 2.1959 -3.0300 -0.0000
C 2.9659 -1.6963 -0.0000
C 4.5059 -1.6963 -0.0000
C 5.2759 -3.0300 -0.0000
C 4.5059 -4.3637 -0.0000
C 2.9659 -4.3637 -0.0000
C 5.2759 -5.6973 -0.0000
C 6.8159 -5.6973 -0.0000
C 7.5859 -4.3637 -0.0000
C 6.8159 -3.0300 -0.0000
C 7.5859 -1.6963 -0.0000
C 6.8159 -0.3626 -0.0000
C 5.2759 -0.3626 -0.0000
C 2.1959 -5.6973 -0.0000
C 2.9659 -7.0310 -0.0000
C 4.5059 -7.0310 -0.0000
H 8.7259 -1.6963 -0.0000
H 7.3859 0.6247 -0.0000
H 4.7059 0.6247 -0.0000
H 1.0559 -5.6973 -0.0000
H 2.3959 -8.0183 -0.0000
H 5.0759 -8.0183 -0.0000
F 0.7981005287904785 -2.6841289137751136 0.0
X -0.010186700019420014 -2.669706339180723 -0.0
F 1.9674790200733097 -0.6586942382377456 0.0
X 1.5508455860191148 0.034073172929589335 -0.0
F 8.98369947120952 -4.709571086224886 0.0
X 9.79198670001942 -4.723993660819276 -0.0
F 7.814346894096436 -6.734880825607904 0.0
X 8.2309814087528 -7.427747196955606 -0.0
1 0 A
2 1 A
3 2 A
4 3 A
5 0 A
5 4 A
6 4 A
7 6 A
8 7 A
9 8 A
9 3 A
10 9 A
11 10 A
12 11 A
12 2 A
13 5 A
14 13 A
15 14 A
15 6 A
16 10 S
17 11 S
18 12 S
19 13 S
20 14 S
21 15 S
23 22 S
25 24 S
27 26 S
29 28 S
