38
mol to xyz file
C 2.1959 -3.0300 -0.0000
C 2.9659 -1.6963 -0.0000
C 4.5059 -1.6963 -0.0000
C 5.2759 -3.0300 -0.0000
C 4.5059 -4.3637 -0.0000
C 2.9659 -4.3637 -0.0000
C 5.2759 -5.6973 -0.0000
C 6.8159 -5.6973 -0.0000
C 7.5859 -4.3637 -0.0000
C 6.8159 -3.0300 -0.0000
C 7.5859 -1.6963 -0.0000
C 6.8159 -0.3626 -0.0000
C 5.2759 -0.3626 -0.0000
C 2.1959 -5.6973 -0.0000
C 2.9659 -7.0310 -0.0000
C 4.5059 -7.0310 -0.0000
H 8.7259 -1.6963 -0.0000
H 7.3859 0.6247 -0.0000
H 4.7059 0.6247 -0.0000
H 1.0559 -5.6973 -0.0000
H 2.3959 -8.0183 -0.0000
H 5.0759 -8.0183 -0.0000
N 1.1687971695860304 -3.0270545364350627 0.016300000000000002
H 0.8763014564952882 -2.7025469743913746 -0.9134
H 0.9026490402687655 -2.279466586250658 0.6687000000000001
X -0.010186700019420014 -2.669706339180723 -0.0
N 2.07537442164203 -1.1845255435348476 0.016300000000000002
H 1.9822411475841397 -0.757694085857162 -0.9134
H 2.2148772271411232 -0.4033331618145175 0.6687000000000001
X 1.5508455860191148 0.034073172929589335 -0.0
N 8.61300283041397 -4.366645463564938 0.016300000000000002
H 8.905498543504713 -4.691153025608626 -0.9134
H 8.879150959731234 -5.114233413749343 0.6687000000000001
X 9.79198670001942 -4.723993660819276 -0.0
N 7.706438283054358 -6.209052348714294 0.016300000000000002
H 7.799582153316203 -6.635881494196001 -0.9134
H 7.566954870958502 -6.990248193397365 0.6687000000000001
X 8.2309814087528 -7.427747196955606 -0.0
1 0 A
2 1 A
3 2 A
4 3 A
5 0 A
5 4 A
6 4 A
7 6 A
8 7 A
9 8 A
9 3 A
10 9 A
11 10 A
12 11 A
12 2 A
13 5 A
14 13 A
15 14 A
15 6 A
16 10 S
17 11 S
18 12 S
19 13 S
20 14 S
21 15 S
22 23 S
22 24 S
0 23 S
25 24 S
26 27 S
26 28 S
27 1 S
29 28 S
30 31 S
30 32 S
31 8 S
33 32 S
34 35 S
34 36 S
35 7 S
37 36 S
