44
Properties=species:S:1:pos:R:3 mol=T to=T xyz=T file=T pbc="F F F"
C 2.19590000 -3.03000000 -0.00000000
C 2.96590000 -1.69630000 -0.00000000
C 4.50590000 -1.69630000 -0.00000000
C 5.27590000 -3.03000000 -0.00000000
C 4.50590000 -4.36370000 -0.00000000
C 2.96590000 -4.36370000 -0.00000000
C 5.27590000 -5.69730000 -0.00000000
C 6.81590000 -5.69730000 -0.00000000
C 7.58590000 -4.36370000 -0.00000000
C 6.81590000 -3.03000000 -0.00000000
C 7.58590000 -1.69630000 -0.00000000
C 6.81590000 -0.36260000 -0.00000000
C 5.27590000 -0.36260000 -0.00000000
C 2.19590000 -5.69730000 -0.00000000
C 2.96590000 -7.03100000 -0.00000000
C 4.50590000 -7.03100000 -0.00000000
H 8.72590000 -1.69630000 -0.00000000
H 7.38590000 0.62470000 -0.00000000
N 4.55612543 0.88412532 -0.00000000
H 1.05590000 -5.69730000 -0.00000000
H 2.39590000 -8.01830000 -0.00000000
H 5.07590000 -8.01830000 -0.00000000
O 3.59026025 1.09158486 0.84750564
O 4.85949856 1.82433917 -0.84743514
O 0.19880535149550171 -3.4374724222750523 0.32730000000000004
C 1.1722900883283838 -2.5764858560886705 -0.012799999999999999
O 0.949263399024808 -1.4377269062409486 -0.29919999999999997
H -0.654530855046664 -2.88938975642598 0.5201
X -0.010186700019420014 -2.669706339180723 -0.0
O 1.0575254620666783 -0.9803897870767722 0.32730000000000004
C 2.3396945078291562 -0.7682272595453136 -0.012799999999999999
O 2.755805382197897 0.31499228894524167 -0.29919999999999997
H 0.6258170282393496 -0.06267244597312116 0.5201
X 1.5508455860191148 0.034073172929589335 -0.0
O 9.582994648504497 -3.9562275777249467 0.32730000000000004
C 8.609509911671616 -4.81721414391133 -0.012799999999999999
O 8.832536600975192 -5.955973093759052 -0.29919999999999997
H 10.436330855046663 -4.504310243574018 0.5201
X 9.79198670001942 -4.723993660819276 -0.0
O 8.72429236870914 -6.413162680304481 0.32730000000000004
C 7.442128607733374 -6.62535714309859 -0.012799999999999999
O 7.026044713533655 -7.708587055438347 -0.29919999999999997
H 9.15602366023462 -7.330869268445669 0.5201
X 8.2309814087528 -7.427747196955606 -0.0
0 1 A
0 5 A
1 2 A
2 3 A
2 12 A
3 4 A
3 9 A
4 5 A
4 6 A
5 13 A
6 7 A
6 15 A
7 8 A
8 9 A
9 10 A
10 11 A
10 16 S
11 12 A
11 17 S
12 18 S
13 14 A
13 19 S
14 15 A
14 20 S
15 21 S
18 22 D
18 23 S
24 25 S
25 26 A
24 27 S
0 25 S
28 27 S
29 30 S
30 31 A
29 32 S
1 30 S
33 32 S
34 35 S
35 36 A
34 37 S
8 35 S
38 37 S
39 40 S
40 41 A
39 42 S
7 40 S
43 42 S
