39
Properties=species:S:1:pos:R:3 mol=T to=T xyz=T file=T pbc="F F F"
C 2.19590000 -3.03000000 -0.00000000
C 2.96590000 -1.69630000 -0.00000000
C 4.50590000 -1.69630000 -0.00000000
C 5.27590000 -3.03000000 -0.00000000
C 4.50590000 -4.36370000 -0.00000000
C 2.96590000 -4.36370000 -0.00000000
C 5.27590000 -5.69730000 -0.00000000
C 6.81590000 -5.69730000 -0.00000000
C 7.58590000 -4.36370000 -0.00000000
C 6.81590000 -3.03000000 -0.00000000
C 7.58590000 -1.69630000 -0.00000000
C 6.81590000 -0.36260000 -0.00000000
C 5.27590000 -0.36260000 -0.00000000
C 2.19590000 -5.69730000 -0.00000000
C 2.96590000 -7.03100000 -0.00000000
C 4.50590000 -7.03100000 -0.00000000
H 8.72590000 -1.69630000 -0.00000000
H 7.38590000 0.62470000 -0.00000000
H 4.70590000 0.62470000 -0.00000000
O 0.79934125 -5.69730000 -0.00000000
H 2.39590000 -8.01830000 -0.00000000
H 5.07590000 -8.01830000 -0.00000000
H 0.39582907 -4.78531579 0.18115002
N 1.1687971695860304 -3.0270545364350627 0.016300000000000002
H 0.8763014564952882 -2.7025469743913746 -0.9134
H 0.9026490402687655 -2.279466586250658 0.6687000000000001
X -0.010186700019420014 -2.669706339180723 -0.0
N 2.07537442164203 -1.1845255435348476 0.016300000000000002
H 1.9822411475841397 -0.757694085857162 -0.9134
H 2.2148772271411232 -0.4033331618145175 0.6687000000000001
X 1.5508455860191148 0.034073172929589335 -0.0
N 8.61300283041397 -4.366645463564938 0.016300000000000002
H 8.905498543504713 -4.691153025608626 -0.9134
H 8.879150959731234 -5.114233413749343 0.6687000000000001
X 9.79198670001942 -4.723993660819276 -0.0
N 7.706438283054358 -6.209052348714294 0.016300000000000002
H 7.799582153316203 -6.635881494196001 -0.9134
H 7.566954870958502 -6.990248193397365 0.6687000000000001
X 8.2309814087528 -7.427747196955606 -0.0
0 1 A
0 5 A
1 2 A
2 3 A
2 12 A
3 4 A
3 9 A
4 5 A
4 6 A
5 13 A
6 7 A
6 15 A
7 8 A
8 9 A
9 10 A
10 11 A
10 16 S
11 12 A
11 17 S
12 18 S
13 14 A
13 19 S
14 15 A
14 20 S
15 21 S
19 22 S
23 24 S
23 25 S
0 24 S
26 25 S
27 28 S
27 29 S
1 28 S
30 29 S
31 32 S
31 33 S
8 32 S
34 33 S
35 36 S
35 37 S
7 36 S
38 37 S
