64
Properties=species:S:1:pos:R:3 mol=T to=T xyz=T file=T pbc="F F F"
C 6.44940000 -2.71330000 -0.03590000
C 5.67870000 -4.04600000 -0.04600000
C 5.67920000 3.95150000 0.04710000
C 6.44970000 2.61870000 0.03620000
C 7.98950000 2.61780000 0.03440000
C 8.75900000 3.95150000 0.03000000
C 7.98840000 5.28480000 0.02720000
C 6.44870000 5.28500000 0.04180000
C 6.44850000 -5.37970000 -0.04080000
C 7.98840000 -5.37950000 -0.02650000
C 8.75930000 -4.04620000 -0.02950000
C 7.98930000 -2.71250000 -0.03410000
H 8.55890000 1.63010000 0.03250000
Cl 10.11481629 3.95233252 0.02393451
H 5.87890000 6.27240000 0.04610000
H 5.87890000 -6.36720000 -0.04450000
H 9.89930000 -4.04690000 -0.02540000
H 8.55860000 -1.72470000 -0.03330000
C -1.24740000 -0.04700000 -0.00000000
C -0.47630000 -4.04590000 -0.04640000
C -1.24670000 -2.71290000 -0.03630000
C -1.24650000 2.61860000 0.03630000
C -0.47570000 3.95130000 0.04660000
C -1.24510000 5.28530000 0.04150000
C -2.78490000 5.28560000 0.02680000
C -3.55590000 3.95230000 0.03030000
C -2.78610000 2.61830000 0.03470000
C -2.78650000 -2.71230000 -0.03400000
C -3.55630000 -4.04580000 -0.02970000
C -2.78590000 -5.37910000 -0.02670000
C -1.24620000 -5.37950000 -0.04140000
H -0.67500000 6.27260000 0.04540000
H -4.69590000 3.95290000 0.02520000
H -3.35550000 1.63050000 0.03390000
H -3.35620000 -1.72470000 -0.03300000
H -4.69630000 -4.04640000 -0.02530000
H -0.67670000 -6.36710000 -0.04580000
C -0.47720000 -1.38010000 -0.02210000
C 1.06240000 -1.38040000 -0.02320000
C 1.83180000 -0.04720000 -0.00000000
O 1.06240000 1.28610000 0.02330000
C -0.47710000 1.28570000 0.02200000
C 4.14020000 1.28620000 0.02310000
C 3.37080000 -0.04730000 0.00010000
O 4.14000000 -1.38100000 -0.02320000
C 5.67970000 -1.38040000 -0.02140000
C 5.68000000 1.28590000 0.02200000
C 6.45000000 -0.04720000 0.00030000
H 4.53870000 -4.04470000 -0.05340000
H 4.53910000 3.95040000 0.05480000
H -2.38760000 -0.04670000 -0.00040000
H 1.63270000 -2.36750000 -0.04030000
H 3.57000000 2.27330000 0.04110000
H 7.59020000 -0.04730000 0.00060000
H 0.66370000 -4.04490000 -0.05350000
H 0.66440000 3.95000000 0.05330000
F 9.011805933623242 6.2977711076949525 0.0272
X 9.429281877590116 6.989497180383022 0.022723606452196135
F 9.011754938737157 -6.392522625296332 -0.0265
X 9.429227508834337 -7.084352208153323 -0.021803545606081484
F -3.8081890101262097 6.298689222011034 0.0268
X -4.225658844240917 6.99052186556249 0.022144277860061973
F -3.809343339585208 -6.392033315010754 -0.0267
X -4.226720848175998 -7.0838577080879315 -0.021943046613317484
0 11 A
0 45 S
0 1 A
11 10 A
11 17 S
45 44 S
45 47 D
1 48 S
1 8 A
8 15 S
8 9 A
2 7 A
2 49 S
2 3 A
7 6 A
7 14 S
3 4 A
3 46 S
4 5 A
4 12 S
46 42 D
46 47 S
5 6 A
5 13 S
9 10 A
10 16 S
18 37 S
18 50 S
18 41 D
37 20 S
37 38 D
41 21 S
41 40 S
19 54 S
19 20 A
19 30 A
20 27 A
30 29 A
30 36 S
27 34 S
27 28 A
21 26 A
21 22 A
26 25 A
26 33 S
22 23 A
22 55 S
23 24 A
23 31 S
24 25 A
25 32 S
28 35 S
28 29 A
38 39 S
38 51 S
39 40 S
39 43 D
43 42 S
43 44 S
42 52 S
47 53 S
57 56 S
59 58 S
61 60 S
63 62 S
