76
Properties=species:S:1:pos:R:3 mol=T to=T xyz=T file=T pbc="F F F"
C 6.44940000 -2.71330000 -0.03590000
C 5.67870000 -4.04600000 -0.04600000
C 5.67920000 3.95150000 0.04710000
C 6.44970000 2.61870000 0.03620000
C 7.98950000 2.61780000 0.03440000
C 8.75900000 3.95150000 0.03000000
C 7.98840000 5.28480000 0.02720000
C 6.44870000 5.28500000 0.04180000
C 6.44850000 -5.37970000 -0.04080000
C 7.98840000 -5.37950000 -0.02650000
C 8.75930000 -4.04620000 -0.02950000
C 7.98930000 -2.71250000 -0.03410000
H 8.55890000 1.63010000 0.03250000
H 9.89900000 3.95220000 0.02490000
H 5.87890000 6.27240000 0.04610000
H 5.87890000 -6.36720000 -0.04450000
H 9.89930000 -4.04690000 -0.02540000
H 8.55860000 -1.72470000 -0.03330000
C -1.24740000 -0.04700000 -0.00000000
C -0.47630000 -4.04590000 -0.04640000
C -1.24670000 -2.71290000 -0.03630000
C -1.24650000 2.61860000 0.03630000
C -0.47570000 3.95130000 0.04660000
C -1.24510000 5.28530000 0.04150000
C -2.78490000 5.28560000 0.02680000
C -3.55590000 3.95230000 0.03030000
C -2.78610000 2.61830000 0.03470000
C -2.78650000 -2.71230000 -0.03400000
C -3.55630000 -4.04580000 -0.02970000
C -2.78590000 -5.37910000 -0.02670000
C -1.24620000 -5.37950000 -0.04140000
Br -0.20642536 7.08407824 0.04860547
H -4.69590000 3.95290000 0.02520000
H -3.35550000 1.63050000 0.03390000
H -3.35620000 -1.72470000 -0.03300000
H -4.69630000 -4.04640000 -0.02530000
H -0.67670000 -6.36710000 -0.04580000
C -0.47720000 -1.38010000 -0.02210000
C 1.06240000 -1.38040000 -0.02320000
C 1.83180000 -0.04720000 -0.00000000
O 1.06240000 1.28610000 0.02330000
C -0.47710000 1.28570000 0.02200000
C 4.14020000 1.28620000 0.02310000
C 3.37080000 -0.04730000 0.00010000
O 4.14000000 -1.38100000 -0.02320000
C 5.67970000 -1.38040000 -0.02140000
C 5.68000000 1.28590000 0.02200000
C 6.45000000 -0.04720000 0.00030000
H 4.53870000 -4.04470000 -0.05340000
H 4.53910000 3.95040000 0.05480000
H -2.38760000 -0.04670000 -0.00040000
H 1.63270000 -2.36750000 -0.04030000
H 3.57000000 2.27330000 0.04110000
H 7.59020000 -0.04730000 0.00060000
H 0.66370000 -4.04490000 -0.05350000
H 0.66440000 3.95000000 0.05330000
O 8.646227611406765 7.213966567114118 0.35450000000000004
C 8.897096271847422 5.938805669341327 0.0144
O 9.9924127460489 5.5556677420320595 -0.27199999999999996
H 9.55045944840182 7.6732508744495025 0.5473
X 9.429281877590116 6.989497180383022 0.022723606452196135
O 9.913751291720823 -6.048411962420291 0.3008
C 8.637168660827685 -6.291942630924188 -0.0393
O 8.247737567997698 -7.385037445630234 -0.3257
H 10.367827487360254 -6.955270329836957 0.49360000000000004
X 9.429227508834337 -7.084352208153323 -0.021803545606081484
O -4.710205847162443 5.954642752656442 0.3541
C -3.4336066758392474 6.198086700572448 0.014000000000000002
O -3.044101328463282 7.291155058162919 -0.2724
H -5.164220437609413 6.861531964005474 0.5469
X -4.225658844240917 6.99052186556249 0.022144277860061973
O -3.4437829840469876 -7.308247684678763 0.30060000000000003
C -3.6946150434124823 -6.033079586742469 -0.03949999999999999
O -4.789920519946254 -5.649910220697725 -0.32589999999999997
H -4.348028003517328 -7.767506037638276 0.49340000000000006
X -4.226720848175998 -7.0838577080879315 -0.021943046613317484
0 11 A
0 45 S
0 1 A
11 10 A
11 17 S
45 44 S
45 47 D
1 48 S
1 8 A
8 15 S
8 9 A
2 7 A
2 49 S
2 3 A
7 6 A
7 14 S
3 4 A
3 46 S
4 5 A
4 12 S
46 42 D
46 47 S
5 6 A
5 13 S
9 10 A
10 16 S
18 37 S
18 50 S
18 41 D
37 20 S
37 38 D
41 21 S
41 40 S
19 54 S
19 20 A
19 30 A
20 27 A
30 29 A
30 36 S
27 34 S
27 28 A
21 26 A
21 22 A
26 25 A
26 33 S
22 23 A
22 55 S
23 24 A
23 31 S
24 25 A
25 32 S
28 35 S
28 29 A
38 39 S
38 51 S
39 40 S
39 43 D
43 42 S
43 44 S
42 52 S
47 53 S
56 57 S
57 58 A
56 59 S
6 57 S
60 59 S
61 62 S
62 63 A
61 64 S
9 62 S
65 64 S
66 67 S
67 68 A
66 69 S
24 67 S
70 69 S
71 72 S
72 73 A
71 74 S
29 72 S
75 74 S
