72
mol to xyz file
C 6.4494 -2.7133 -0.0359
C 5.6787 -4.0460 -0.0460
C 5.6792 3.9515 0.0471
C 6.4497 2.6187 0.0362
C 7.9895 2.6178 0.0344
C 8.7590 3.9515 0.0300
C 7.9884 5.2848 0.0272
C 6.4487 5.2850 0.0418
C 6.4485 -5.3797 -0.0408
C 7.9884 -5.3795 -0.0265
C 8.7593 -4.0462 -0.0295
C 7.9893 -2.7125 -0.0341
H 8.5589 1.6301 0.0325
H 9.8990 3.9522 0.0249
H 5.8789 6.2724 0.0461
H 5.8789 -6.3672 -0.0445
H 9.8993 -4.0469 -0.0254
H 8.5586 -1.7247 -0.0333
C -1.2474 -0.0470 -0.0000
C -0.4763 -4.0459 -0.0464
C -1.2467 -2.7129 -0.0363
C -1.2465 2.6186 0.0363
C -0.4757 3.9513 0.0466
C -1.2451 5.2853 0.0415
C -2.7849 5.2856 0.0268
C -3.5559 3.9523 0.0303
C -2.7861 2.6183 0.0347
C -2.7865 -2.7123 -0.0340
C -3.5563 -4.0458 -0.0297
C -2.7859 -5.3791 -0.0267
C -1.2462 -5.3795 -0.0414
H -0.6750 6.2726 0.0454
H -4.6959 3.9529 0.0252
H -3.3555 1.6305 0.0339
H -3.3562 -1.7247 -0.0330
H -4.6963 -4.0464 -0.0253
H -0.6767 -6.3671 -0.0458
C -0.4772 -1.3801 -0.0221
C 1.0624 -1.3804 -0.0232
C 1.8318 -0.0472 -0.0000
O 1.0624 1.2861 0.0233
C -0.4771 1.2857 0.0220
C 4.1402 1.2862 0.0231
C 3.3708 -0.0473 0.0001
O 4.1400 -1.3810 -0.0232
C 5.6797 -1.3804 -0.0214
C 5.6800 1.2859 0.0220
C 6.4500 -0.0472 0.0003
H 4.5387 -4.0447 -0.0534
H 4.5391 3.9504 0.0548
H -2.3876 -0.0467 -0.0004
H 1.6327 -2.3675 -0.0403
H 3.5700 2.2733 0.0411
H 7.5902 -0.0473 0.0006
H 0.6637 -4.0449 -0.0535
H 0.6644 3.9500 0.0533
N 8.484275095220243 6.1842758417769295 0.0435
H 8.90938485986015 6.2849763284083355 -0.8862000000000001
H 9.267822242396745 6.058671549845633 0.6959
X 9.429281877590116 6.989497180383022 0.022723606452196135
N 8.890832654154943 -5.869973449551416 -0.010199999999999997
H 8.99408004157522 -6.294471832340901 -0.9399000000000001
H 8.76992831217609 -6.654259564493318 0.6422
X 9.429227508834337 -7.084352208153323 -0.021803545606081484
N -3.6873032079511874 5.7761276243795106 0.0431
H -3.790525111286988 6.200632204651307 -0.8866
H -3.566351783165859 6.560406479661481 0.6955
X -4.225658844240917 6.99052186556249 0.022144277860061973
N -3.281809079524039 -6.278557105617394 -0.010400000000000003
H -3.706922648600359 -6.3792415303671675 -0.9401
H -4.065351480467544 -6.152923209221208 0.642
X -4.226720848175998 -7.0838577080879315 -0.021943046613317484
0 11 A
0 45 S
0 1 A
1 48 S
1 8 A
2 7 A
2 49 S
2 3 A
3 4 A
3 46 S
4 5 A
4 12 S
5 6 A
5 13 S
6 7 A
7 14 S
8 15 S
8 9 A
9 10 A
10 16 S
10 11 A
11 17 S
18 37 S
18 50 S
18 41 D
19 54 S
19 20 A
19 30 A
20 27 A
20 37 S
21 26 A
21 22 A
21 41 S
22 23 A
22 55 S
23 24 A
23 31 S
24 25 A
25 32 S
25 26 A
26 33 S
27 34 S
27 28 A
28 35 S
28 29 A
29 30 A
30 36 S
37 38 D
38 39 S
38 51 S
39 40 S
39 43 D
40 41 S
42 46 D
42 52 S
42 43 S
43 44 S
44 45 S
45 47 D
46 47 S
47 53 S
56 57 S
56 58 S
6 57 S
59 58 S
60 61 S
60 62 S
9 61 S
63 62 S
64 65 S
64 66 S
24 65 S
67 66 S
68 69 S
68 70 S
29 69 S
71 70 S
