42
Properties=species:S:1:pos:R:3 mol=T to=T xyz=T file=T pbc="F F F"
C 20.79490000 -0.92080000 16.28180000
C 20.15410000 -1.07900000 15.02710000
C 18.75300000 -0.98930000 14.90960000
C 17.94450000 -0.73910000 16.03840000
C 18.57590000 -0.57990000 17.29490000
C 19.97750000 -0.66960000 17.41260000
H 20.70440000 -1.26160000 14.18420000
H 18.32480000 -1.10880000 13.98760000
H 18.02850000 -0.39760000 18.13670000
H 20.39940000 -0.54920000 18.33700000
C 11.47690000 -0.33540000 15.43370000
C 13.85990000 -0.61020000 14.89600000
C 11.84470000 -0.13960000 16.78730000
C 12.51060000 -0.57160000 14.49490000
H 14.57480000 -0.78370000 14.18550000
H 11.12960000 0.03390000 17.49750000
H 12.29280000 -0.71870000 13.50490000
C 14.22790000 -0.41440000 16.24950000
C 13.19430000 -0.17820000 17.18840000
N 13.50056820 0.02855563 18.57974875
C 4.90970000 0.16760000 15.37910000
C 5.54450000 0.32670000 16.63660000
C 6.94520000 0.23810000 16.76080000
C 7.75940000 -0.01190000 15.63590000
C 7.13350000 -0.17200000 14.37670000
C 5.73260000 -0.08340000 14.25220000
H 4.98950000 0.50930000 17.47660000
H 7.36910000 0.35830000 17.68470000
H 7.68450000 -0.35420000 13.53720000
H 5.31570000 -0.20460000 13.32570000
N 16.60510000 -0.66980000 15.82660000
C 15.57320000 -0.44830000 16.67760000
H 15.77230000 -0.29930000 17.66900000
N 9.09810000 -0.08030000 15.85320000
C 10.13200000 -0.30170000 15.00450000
H 9.93480000 -0.45100000 14.01280000
O 12.79981566 0.85918816 19.29612595
O 14.48331518 -0.61167477 19.14410419
F 22.230314606290747 -1.0350588204348485 16.2818
X 23.034262416030444 -1.028901876667422 16.451048465547366
F 3.474783268085828 0.287950082977757 15.3791
X 2.6695845809721828 0.2508373443481845 15.22164111507046
0 5 A
0 1 A
5 4 A
5 9 S
1 2 A
1 6 S
2 3 A
2 7 S
3 4 A
3 30 S
4 8 S
10 13 A
10 12 A
10 34 S
13 11 A
13 16 S
12 18 A
12 15 S
11 14 S
11 17 A
17 18 A
17 31 S
18 19 S
20 21 A
20 25 A
21 22 A
21 26 S
25 24 A
25 29 S
22 23 A
22 27 S
23 24 A
23 33 S
24 28 S
30 31 D
34 33 D
34 35 S
31 32 S
19 36 D
19 37 S
39 38 S
41 40 S
