46
mol to xyz file
C 20.7949 -0.9208 16.2818
C 20.1541 -1.0790 15.0271
C 18.7530 -0.9893 14.9096
C 17.9445 -0.7391 16.0384
C 18.5759 -0.5799 17.2949
C 19.9775 -0.6696 17.4126
H 20.7044 -1.2616 14.1842
H 18.3248 -1.1088 13.9876
H 18.0285 -0.3976 18.1367
H 20.3994 -0.5492 18.3370
C 11.4769 -0.3354 15.4337
C 13.8599 -0.6102 14.8960
C 11.8447 -0.1396 16.7873
C 12.5106 -0.5716 14.4949
H 14.5748 -0.7837 14.1855
H 11.1296 0.0339 17.4975
H 12.2928 -0.7187 13.5049
C 14.2279 -0.4144 16.2495
C 13.1943 -0.1782 17.1884
H 13.4122 -0.0311 18.1783
C 4.9097 0.1676 15.3791
C 5.5445 0.3267 16.6366
C 6.9452 0.2381 16.7608
C 7.7594 -0.0119 15.6359
C 7.1335 -0.1720 14.3767
C 5.7326 -0.0834 14.2522
H 4.9895 0.5093 17.4766
H 7.3691 0.3583 17.6847
H 7.6845 -0.3542 13.5372
H 5.3157 -0.2046 13.3257
N 16.6051 -0.6698 15.8266
C 15.5732 -0.4483 16.6776
H 15.7723 -0.2993 17.6690
N 9.0981 -0.0803 15.8532
C 10.1320 -0.3017 15.0045
H 9.9348 -0.4510 14.0128
O 22.69670393113622 -0.18761338152226648 16.6091
C 21.879569546423344 -1.1981883650439797 16.269
O 22.288450159574364 -2.2841577449941015 15.9826
H 23.62915097308187 -0.5865116191303195 16.8019
X 23.034262416030444 -1.028901876667422 16.451048465547366
O 3.0049002491734145 -0.55776798885185 15.706399999999999
C 3.826179092500988 0.44944175171985634 15.366299999999999
O 3.4217629960266436 1.5370816144099169 15.079899999999999
H 2.074099713648138 -0.15504270647457177 15.899199999999999
X 2.6695845809721828 0.2508373443481845 15.22164111507046
0 5 A
0 1 A
1 2 A
2 3 A
3 4 A
4 5 A
10 13 A
10 12 A
11 13 A
17 18 A
20 21 A
20 25 A
21 22 A
22 23 A
23 24 A
24 25 A
1 6 S
2 7 S
3 30 S
4 8 S
5 9 S
10 34 S
11 14 S
11 17 A
12 18 A
12 15 S
13 16 S
17 31 S
18 19 S
21 26 S
22 27 S
23 33 S
24 28 S
25 29 S
30 31 D
31 32 S
33 34 D
34 35 S
36 37 S
37 38 A
36 39 S
37 0 S
40 39 S
41 42 S
42 43 A
41 44 S
42 20 S
45 44 S
