51
mol to xyz file
C 5.0506 27.6918 5.2146
C 3.8545 26.9849 5.2146
H 5.9853 27.1455 5.2146
H 3.8845 25.9032 5.2146
C -3.7499 29.9029 5.2146
C -2.5396 29.2206 5.2146
H -3.7441 30.9855 5.2146
H -1.6179 29.7874 5.2146
C -1.2645 21.1759 5.2146
C -1.2787 22.5652 5.2146
H -2.2050 20.6396 5.2146
H -2.2305 23.0801 5.2146
C 1.2886 21.1759 5.2146
C 1.3028 22.5652 5.2146
H 2.2291 20.6396 5.2146
H 2.2546 23.0801 5.2146
C -5.0265 27.6918 5.2146
C -3.8304 26.9849 5.2146
H -5.9612 27.1455 5.2146
H -3.8604 25.9032 5.2146
C 3.7740 29.9029 5.2146
C 2.5637 29.2206 5.2146
H 3.7682 30.9855 5.2146
H 1.6420 29.7874 5.2146
C 0.0121 24.8494 5.2146
C 0.0121 20.4380 5.2146
C 0.0121 23.3415 5.2146
C 1.2310 26.9606 5.2146
C 5.0514 29.1663 5.2146
C 2.5368 27.7146 5.2146
C -1.2069 26.9606 5.2146
C -5.0273 29.1663 5.2146
C -2.5127 27.7146 5.2146
N -1.1935 25.5609 5.2146
N 1.2176 25.5609 5.2146
N 0.0121 27.6489 5.2146
O 0.8950201805685222 18.600917322289263 5.5419
C -0.17766224504437908 19.33462217696941 5.2018
O -1.2274568567754394 18.8402092693907 4.9154
H 0.5719644176849285 17.63955773084197 5.7347
X 0.012108592738562922 18.188000000024612 5.2146
O 6.250585424059242 30.8144429333416 5.5419
C 6.11291889495582 29.522151044190927 5.2018
O 7.045825598059986 28.832080081678146 4.9154
H 7.250224483354964 30.98561256011681 5.7347
X 6.999941133216781 30.29129475612224 5.2146
O -7.059235649259945 29.326482169003185 5.5419
C -5.885758052104956 29.884980807296373 5.2018
O -5.785466366056422 31.041032029219323 4.9154
H -7.727919331364175 30.089003921668333 5.7347
X -6.975843281340378 30.291291035416037 5.2146
0 1 A
0 2 S
0 28 A
1 29 A
1 3 S
4 31 A
4 5 A
4 6 S
5 7 S
5 32 A
8 10 S
8 25 A
8 9 A
9 11 S
9 26 A
12 25 A
12 14 S
12 13 A
13 26 A
13 15 S
16 17 A
16 18 S
16 31 A
17 32 A
17 19 S
20 28 A
20 21 A
20 22 S
21 23 S
21 29 A
24 34 A
24 33 A
24 26 S
27 35 A
27 29 S
27 34 A
30 32 S
30 35 A
30 33 A
36 37 S
37 38 A
36 39 S
37 25 S
40 39 S
41 42 S
42 43 A
41 44 S
42 28 S
45 44 S
46 47 S
47 48 A
46 49 S
47 31 S
50 49 S
