48
mol to xyz file
C 5.0506 27.6918 5.2146
C 3.8545 26.9849 5.2146
H 5.9853 27.1455 5.2146
H 3.8845 25.9032 5.2146
C -3.7499 29.9029 5.2146
C -2.5396 29.2206 5.2146
H -3.7441 30.9855 5.2146
H -1.6179 29.7874 5.2146
C -1.2645 21.1759 5.2146
C -1.2787 22.5652 5.2146
H -2.2050 20.6396 5.2146
H -2.2305 23.0801 5.2146
C 1.2886 21.1759 5.2146
C 1.3028 22.5652 5.2146
H 2.2291 20.6396 5.2146
H 2.2546 23.0801 5.2146
C -5.0265 27.6918 5.2146
C -3.8304 26.9849 5.2146
H -5.9612 27.1455 5.2146
H -3.8604 25.9032 5.2146
C 3.7740 29.9029 5.2146
C 2.5637 29.2206 5.2146
H 3.7682 30.9855 5.2146
H 1.6420 29.7874 5.2146
C 0.0121 24.8494 5.2146
C 0.0121 20.4380 5.2146
C 0.0121 23.3415 5.2146
C 1.2310 26.9606 5.2146
C 5.0514 29.1663 5.2146
C 2.5368 27.7146 5.2146
C -1.2069 26.9606 5.2146
C -5.0273 29.1663 5.2146
C -2.5127 27.7146 5.2146
N -1.1935 25.5609 5.2146
N 1.2176 25.5609 5.2146
N 0.0121 27.6489 5.2146
N 0.30126386659803384 19.452437643650043 5.2309
H 0.07329688458390621 19.079758216915256 4.3012
H -0.3398175578149827 18.984744178576413 5.8833
X 0.012108592738562922 18.188000000024612 5.2146
N 5.758598770177047 29.911161597520017 5.2309
H 6.195356860530524 29.90109827248378 4.3012
H 6.484923994155969 29.59151454370602 5.8833
X 6.999941133216781 30.29129475612224 5.2146
N -6.024075701520376 29.414064204150968 5.2309
H -6.230758944263162 29.798955016160463 4.3012
H -6.10429148355745 30.20355011175932 5.8833
X -6.975843281340378 30.291291035416037 5.2146
0 1 A
0 2 S
0 28 A
1 29 A
1 3 S
4 31 A
4 5 A
4 6 S
5 7 S
5 32 A
8 10 S
8 25 A
8 9 A
9 11 S
9 26 A
12 25 A
12 14 S
12 13 A
13 26 A
13 15 S
16 17 A
16 18 S
16 31 A
17 32 A
17 19 S
20 28 A
20 21 A
20 22 S
21 23 S
21 29 A
24 34 A
24 33 A
24 26 S
27 35 A
27 29 S
27 34 A
30 32 S
30 35 A
30 33 A
36 37 S
36 38 S
37 25 S
39 38 S
40 41 S
40 42 S
41 28 S
43 42 S
44 45 S
44 46 S
45 31 S
47 46 S
