45
Properties=species:S:1:pos:R:3 mol=T to=T xyz=T file=T pbc="F F F"
C 5.05060000 27.69180000 5.21460000
C 3.85450000 26.98490000 5.21460000
H 5.98530000 27.14550000 5.21460000
C 3.89753772 25.43310327 5.21460000
C -3.74990000 29.90290000 5.21460000
C -2.53960000 29.22060000 5.21460000
H -3.74410000 30.98550000 5.21460000
H -1.61790000 29.78740000 5.21460000
C -1.26450000 21.17590000 5.21460000
C -1.27870000 22.56520000 5.21460000
H -2.20500000 20.63960000 5.21460000
H -2.23050000 23.08010000 5.21460000
C 1.28860000 21.17590000 5.21460000
C 1.30280000 22.56520000 5.21460000
H 2.22910000 20.63960000 5.21460000
H 2.25460000 23.08010000 5.21460000
C -5.02650000 27.69180000 5.21460000
C -3.83040000 26.98490000 5.21460000
H -5.96120000 27.14550000 5.21460000
H -3.86040000 25.90320000 5.21460000
C 3.77400000 29.90290000 5.21460000
C 2.56370000 29.22060000 5.21460000
H 3.76820000 30.98550000 5.21460000
H 1.64200000 29.78740000 5.21460000
C 0.01210000 24.84940000 5.21460000
C 0.01210000 20.43800000 5.21460000
C 0.01210000 23.34150000 5.21460000
C 1.23100000 26.96060000 5.21460000
C 5.05140000 29.16630000 5.21460000
C 2.53680000 27.71460000 5.21460000
C -1.20690000 26.96060000 5.21460000
C -5.02730000 29.16630000 5.21460000
C -2.51270000 27.71460000 5.21460000
N -1.19350000 25.56090000 5.21460000
N 1.21760000 25.56090000 5.21460000
N 0.01210000 27.64890000 5.21460000
H 4.77147058 25.13711142 4.94961803
H 3.24439494 25.09482928 4.59762011
H 3.70319583 25.10755786 6.09655832
F 0.012108248770776668 18.99804508059038 5.2146
X 0.012108592738562922 18.188000000024612 5.2146
F 6.298440446881095 29.886272425751567 5.2146
X 6.999941133216781 30.29129475612224 5.2146
F -6.274342509015185 29.88626885398544 5.2146
X -6.975843281340378 30.291291035416037 5.2146
25 8 A
25 12 A
28 0 A
28 20 A
31 4 A
31 16 A
0 1 A
0 2 S
1 29 A
1 3 S
29 21 A
29 27 S
3 36 S
3 37 S
3 38 S
4 5 A
4 6 S
5 7 S
5 32 A
32 17 A
32 30 S
8 10 S
8 9 A
9 11 S
9 26 A
26 13 A
26 24 S
12 14 S
12 13 A
13 15 S
16 17 A
16 18 S
17 19 S
20 21 A
20 22 S
21 23 S
24 34 A
24 33 A
34 27 A
33 30 A
27 35 A
35 30 A
40 39 S
42 41 S
44 43 S
