33
Properties=species:S:1:pos:R:3 mol=T to=T xyz=T file=T pbc="F F F"
C 59.47620000 35.14640000 1.61590000
C 53.10040000 31.66120000 2.10340000
C 54.05350000 32.68310000 2.14190000
C 55.38360000 32.42000000 1.80920000
C 55.76710000 31.13130000 1.43340000
C 54.82000000 30.10620000 1.39080000
C 53.48440000 30.35570000 1.72430000
C 56.35630000 33.47240000 1.85800000
C 60.42970000 36.16790000 1.65450000
C 58.14610000 35.40950000 1.94870000
C 57.76260000 36.69770000 2.32460000
C 58.70970000 37.72330000 2.36720000
C 60.04530000 37.47380000 2.03360000
C 57.17340000 34.35710000 1.89990000
H 59.78990000 34.09380000 1.31070000
H 61.51390000 35.94620000 1.38050000
H 56.67660000 36.91260000 2.59670000
H 58.39720000 38.77520000 2.67590000
H 52.01550000 31.87940000 2.37710000
C 53.63504026 34.11945320 2.55627455
H 56.85310000 30.91630000 1.16150000
H 55.13220000 29.05420000 1.08200000
H 53.93125500 34.74392305 1.89003174
H 54.03573581 34.33845263 3.40076925
H 52.67928470 34.16433400 2.63448005
N 60.50105424397072 38.394254762116354 2.0499
H 60.92131322704739 38.513591626258844 1.1202
H 61.28937543270681 38.30330272316331 2.7023
X 61.53806923161684 39.15441041420809 2.113101933229547
N 53.028604995302935 29.43526542128557 1.7406
H 52.608340727956474 29.315947167896827 0.8108999999999998
H 52.24028783503565 29.526252369954722 2.393
X 51.99178182586383 28.675034670481896 1.6447986799072845
0 14 S
0 8 A
0 9 A
8 15 S
8 12 A
9 13 S
9 10 A
1 18 S
1 2 A
1 6 A
2 3 A
2 19 S
6 5 A
3 7 S
3 4 A
19 22 S
19 23 S
19 24 S
7 13 T
4 20 S
4 5 A
5 21 S
12 11 A
10 16 S
10 11 A
11 17 S
25 26 S
25 27 S
26 12 S
28 27 S
29 30 S
29 31 S
6 30 S
32 31 S
