35
Properties=species:S:1:pos:R:3 mol=T to=T xyz=T file=T pbc="F F F"
C 59.47620000 35.14640000 1.61590000
C 53.10040000 31.66120000 2.10340000
C 54.05350000 32.68310000 2.14190000
C 55.38360000 32.42000000 1.80920000
C 55.76710000 31.13130000 1.43340000
C 54.82000000 30.10620000 1.39080000
C 53.48440000 30.35570000 1.72430000
C 56.35630000 33.47240000 1.85800000
C 60.42970000 36.16790000 1.65450000
C 58.14610000 35.40950000 1.94870000
C 57.76260000 36.69770000 2.32460000
C 58.70970000 37.72330000 2.36720000
C 60.04530000 37.47380000 2.03360000
C 57.17340000 34.35710000 1.89990000
H 59.78990000 34.09380000 1.31070000
H 61.51390000 35.94620000 1.38050000
H 56.67660000 36.91260000 2.59670000
C 58.29840873 39.10773931 2.77348997
H 52.01550000 31.87940000 2.37710000
H 53.74620000 33.73790000 2.44620000
H 56.85310000 30.91630000 1.16150000
H 55.13220000 29.05420000 1.08200000
F 57.49434483 39.03699833 3.89569061
F 57.59814200 39.73887491 1.76101688
F 59.42470349 39.85286866 3.06925463
O 60.599021816412 39.43538429847646 2.3609
C 60.9177222923542 38.175463504682575 2.0208
O 62.031960269944776 37.85144717902156 1.7344
H 61.477399023271104 39.94236632229032 2.5537
X 61.53806923161684 39.15441041420809 2.113101933229547
O 52.9305991748258 28.394138006068538 2.0516
C 52.6119494465652 29.6540716355425 1.7115
O 51.497724520693744 29.978132840512746 1.4251
H 52.05220154832311 27.887191362175464 2.2444
X 51.99178182586383 28.675034670481896 1.6447986799072845
0 14 S
0 8 A
0 9 A
8 15 S
8 12 A
9 13 S
9 10 A
1 18 S
1 2 A
1 6 A
2 3 A
2 19 S
6 5 A
3 7 S
3 4 A
7 13 T
4 20 S
4 5 A
5 21 S
12 11 A
10 16 S
10 11 A
11 17 S
17 22 S
17 23 S
17 24 S
25 26 S
26 27 A
25 28 S
26 12 S
29 28 S
30 31 S
31 32 A
30 33 S
6 31 S
34 33 S
