32
mol to xyz file
C 59.4762 35.1464 1.6159
C 53.1004 31.6612 2.1034
C 54.0535 32.6831 2.1419
C 55.3836 32.4200 1.8092
C 55.7671 31.1313 1.4334
C 54.8200 30.1062 1.3908
C 53.4844 30.3557 1.7243
C 56.3563 33.4724 1.8580
C 60.4297 36.1679 1.6545
C 58.1461 35.4095 1.9487
C 57.7626 36.6977 2.3246
C 58.7097 37.7233 2.3672
C 60.0453 37.4738 2.0336
C 57.1734 34.3571 1.8999
H 59.7899 34.0938 1.3107
H 61.5139 35.9462 1.3805
H 56.6766 36.9126 2.5967
H 58.3972 38.7752 2.6759
H 52.0155 31.8794 2.3771
H 53.7462 33.7379 2.4462
H 56.8531 30.9163 1.1615
H 55.1322 29.0542 1.0820
O 60.599021816412 39.43538429847646 2.3609
C 60.9177222923542 38.175463504682575 2.0208
O 62.031960269944776 37.85144717902156 1.7344
H 61.477399023271104 39.94236632229032 2.5537
X 61.53806923161684 39.15441041420809 2.113101933229547
O 52.9305991748258 28.394138006068538 2.0516
C 52.6119494465652 29.6540716355425 1.7115
O 51.497724520693744 29.978132840512746 1.4251
H 52.05220154832311 27.887191362175464 2.2444
X 51.99178182586383 28.675034670481896 1.6447986799072845
0 14 S
0 8 A
0 9 A
1 18 S
1 2 A
1 6 A
2 3 A
2 19 S
3 7 S
3 4 A
4 20 S
4 5 A
5 21 S
5 6 A
7 13 T
8 15 S
8 12 A
9 13 S
9 10 A
10 16 S
10 11 A
11 12 A
11 17 S
22 23 S
23 24 A
22 25 S
23 12 S
26 25 S
27 28 S
28 29 A
27 30 S
6 28 S
31 30 S
