27
Properties=species:S:1:pos:R:3 mol=T to=T xyz=T file=T pbc="F F F"
C 59.47620000 35.14640000 1.61590000
C 53.10040000 31.66120000 2.10340000
C 54.05350000 32.68310000 2.14190000
C 55.38360000 32.42000000 1.80920000
C 55.76710000 31.13130000 1.43340000
C 54.82000000 30.10620000 1.39080000
C 53.48440000 30.35570000 1.72430000
C 56.35630000 33.47240000 1.85800000
C 60.42970000 36.16790000 1.65450000
C 58.14610000 35.40950000 1.94870000
C 57.76260000 36.69770000 2.32460000
C 58.70970000 37.72330000 2.36720000
C 60.04530000 37.47380000 2.03360000
C 57.17340000 34.35710000 1.89990000
H 59.78990000 34.09380000 1.31070000
H 61.51390000 35.94620000 1.38050000
H 56.67660000 36.91260000 2.59670000
H 58.39720000 38.77520000 2.67590000
H 52.01550000 31.87940000 2.37710000
H 53.74620000 33.73790000 2.44620000
H 56.85310000 30.91630000 1.16150000
O 55.20247135 28.81741122 1.01249394
H 54.44391708 28.14586740 1.04375011
F 61.020647403483494 38.533124130055576 2.0336
X 61.53806923161684 39.15441041420809 2.113101933229547
F 52.50900561410308 29.296419129805138 1.7243
X 51.99178182586383 28.675034670481896 1.6447986799072845
0 14 S
0 8 A
0 9 A
8 15 S
8 12 A
9 13 S
9 10 A
1 18 S
1 2 A
1 6 A
2 3 A
2 19 S
6 5 A
3 7 S
3 4 A
7 13 T
4 20 S
4 5 A
5 21 S
21 22 S
12 11 A
10 16 S
10 11 A
11 17 S
24 23 S
26 25 S
