24
mol to xyz file
C 1.2153 8.0112 1.7994
C 0.0000 10.1161 1.7994
C -1.2153 8.0112 1.7994
C 1.2123 9.4128 1.7994
C -1.2123 9.4128 1.7994
C 0.0000 7.3130 1.7994
H 0.0000 6.2286 1.7994
H 2.1515 9.9550 1.7994
H -2.1515 9.9550 1.7994
O 3.247236562298802 7.851029413457639 2.1267
C 2.073762148721935 7.292524086105763 1.7866000000000002
O 1.9734770524088088 6.1364722925180075 1.5002000000000002
H 3.9159245909256546 7.088511472441735 2.3195
X 3.1638475703481843 6.886216393530846 1.7994
O -0.8829096979724892 11.953187715713685 2.1267
C 0.18976854102800506 11.219476740209844 1.7866000000000002
O 1.2395659739125935 11.713883657545077 1.5002000000000002
H -0.5598484494779962 12.914545463756099 2.3195
X 0.0 12.3661 1.7994
O -2.4144959057510915 6.363064693166907 2.1267
C -2.2768211580448794 7.655355706771826 1.7866000000000002
O -3.209723472476881 8.345432602289574 1.5002000000000002
H -3.4141360536163052 6.191901423812719 2.3195
X -3.1638475703481843 6.886216393530846 1.7994
0 5 A
0 3 A
1 4 A
1 3 A
2 5 A
2 4 A
3 7 S
4 8 S
5 6 S
9 10 S
10 11 A
9 12 S
10 0 S
13 12 S
14 15 S
15 16 A
14 17 S
15 1 S
18 17 S
19 20 S
20 21 A
19 22 S
20 2 S
23 22 S
