24
Properties=species:S:1:pos:R:3 mol=T to=T xyz=T file=T pbc="F F F"
C 1.21530000 8.01120000 1.79940000
C 0.00000000 10.11610000 1.79940000
C -1.21530000 8.01120000 1.79940000
C 1.21230000 9.41280000 1.79940000
C -1.21230000 9.41280000 1.79940000
C 0.00000000 7.31300000 1.79940000
H 0.00000000 6.22860000 1.79940000
H 2.15150000 9.95500000 1.79940000
C -2.55674150 10.18894585 1.79940000
H -2.48797617 10.94831630 1.21612210
H -2.75436984 10.48672875 2.69044285
H -3.25947805 9.61177095 1.49178086
N 2.2120770894198243 7.76344137954908 1.8157
H 2.418762488224517 7.378551725335116 0.886
H 2.2922972939645625 6.973955921302508 2.4681
X 3.1638475703481843 6.886216393530846 1.7994
N -0.28915823153245573 11.101664009659961 1.8157
H -0.06118911868656304 11.474342132962441 0.886
H 0.351925866958757 11.569353809272602 2.4681
X 0.0 12.3661 1.7994
N -1.9225051385278547 7.266344448876295 1.8157
H -2.3592631428265047 7.2764115080824245 0.886
H -2.6488276295794577 7.585997712574001 2.4681
X -3.1638475703481843 6.886216393530846 1.7994
0 5 A
0 3 A
5 2 A
5 6 S
3 1 A
3 7 S
1 4 A
4 2 A
4 8 S
8 9 S
8 10 S
8 11 S
12 13 S
12 14 S
13 0 S
15 14 S
16 17 S
16 18 S
17 1 S
19 18 S
20 21 S
20 22 S
21 2 S
23 22 S
