18
Properties=species:S:1:pos:R:3 mol=T to=T xyz=T file=T pbc="F F F"
C 1.21530000 8.01120000 1.79940000
C 0.00000000 10.11610000 1.79940000
C -1.21530000 8.01120000 1.79940000
C 1.21230000 9.41280000 1.79940000
C -1.21230000 9.41280000 1.79940000
C 0.00000000 7.31300000 1.79940000
H 0.00000000 6.22860000 1.79940000
C 2.51162749 10.16290154 1.79940000
H -2.15150000 9.95500000 1.79940000
F 2.85841733 10.48034278 3.09933277
F 2.41477840 11.33109480 1.06472175
F 3.49986199 9.36897854 1.24775407
F 2.462346626333781 7.291238277580304 1.7994
X 3.1638475703481843 6.886216393530846 1.7994
F -7.145039336352366e-16 11.556054919433244 1.7994
X 0.0 12.3661 1.7994
F -2.462346626333781 7.291238277580304 1.7994
X -3.1638475703481843 6.886216393530846 1.7994
0 5 A
0 3 A
5 2 A
5 6 S
3 1 A
3 7 S
1 4 A
4 2 A
4 8 S
7 9 S
7 10 S
7 11 S
13 12 S
15 14 S
17 16 S
