15
mol to xyz file
C 1.2153 8.0112 1.7994
C 0.0000 10.1161 1.7994
C -1.2153 8.0112 1.7994
C 1.2123 9.4128 1.7994
C -1.2123 9.4128 1.7994
C 0.0000 7.3130 1.7994
H 0.0000 6.2286 1.7994
H 2.1515 9.9550 1.7994
H -2.1515 9.9550 1.7994
F 2.462346626333781 7.291238277580304 1.7994
X 3.1638475703481843 6.886216393530846 1.7994
F -7.145039336352366e-16 11.556054919433244 1.7994
X 0.0 12.3661 1.7994
F -2.462346626333781 7.291238277580304 1.7994
X -3.1638475703481843 6.886216393530846 1.7994
0 5 A
0 3 A
1 4 A
1 3 A
2 5 A
2 4 A
3 7 S
4 8 S
5 6 S
10 9 S
12 11 S
14 13 S
