21
mol to xyz file
C 1.2153 8.0112 1.7994
C 0.0000 10.1161 1.7994
C -1.2153 8.0112 1.7994
C 1.2123 9.4128 1.7994
C -1.2123 9.4128 1.7994
C 0.0000 7.3130 1.7994
H 0.0000 6.2286 1.7994
H 2.1515 9.9550 1.7994
H -2.1515 9.9550 1.7994
N 2.2120770894198243 7.76344137954908 1.8157
H 2.418762488224517 7.378551725335116 0.886
H 2.2922972939645625 6.973955921302508 2.4681
X 3.1638475703481843 6.886216393530846 1.7994
N -0.28915823153245573 11.101664009659961 1.8157
H -0.06118911868656304 11.474342132962441 0.886
H 0.351925866958757 11.569353809272602 2.4681
X 0.0 12.3661 1.7994
N -1.9225051385278547 7.266344448876295 1.8157
H -2.3592631428265047 7.2764115080824245 0.886
H -2.6488276295794577 7.585997712574001 2.4681
X -3.1638475703481843 6.886216393530846 1.7994
0 5 A
0 3 A
1 4 A
1 3 A
2 5 A
2 4 A
3 7 S
4 8 S
5 6 S
9 10 S
9 11 S
10 0 S
12 11 S
13 14 S
13 15 S
14 1 S
16 15 S
17 18 S
17 19 S
18 2 S
20 19 S
