26
Properties=species:S:1:pos:R:3 mol=T to=T xyz=T file=T pbc="F F F"
C 1.21530000 8.01120000 1.79940000
C 0.00000000 10.11610000 1.79940000
C -1.21530000 8.01120000 1.79940000
C 1.21230000 9.41280000 1.79940000
C -1.21230000 9.41280000 1.79940000
C 0.00000000 7.31300000 1.79940000
N -0.00000000 5.87341691 1.79940000
H 2.15150000 9.95500000 1.79940000
H -2.15150000 9.95500000 1.79940000
O 0.78564901 5.21082907 2.59810758
O -0.78572802 5.21084443 1.00076815
O 3.247236562298802 7.851029413457639 2.1267
C 2.073762148721935 7.292524086105763 1.7866000000000002
O 1.9734770524088088 6.1364722925180075 1.5002000000000002
H 3.9159245909256546 7.088511472441735 2.3195
X 3.1638475703481843 6.886216393530846 1.7994
O -0.8829096979724892 11.953187715713685 2.1267
C 0.18976854102800506 11.219476740209844 1.7866000000000002
O 1.2395659739125935 11.713883657545077 1.5002000000000002
H -0.5598484494779962 12.914545463756099 2.3195
X 0.0 12.3661 1.7994
O -2.4144959057510915 6.363064693166907 2.1267
C -2.2768211580448794 7.655355706771826 1.7866000000000002
O -3.209723472476881 8.345432602289574 1.5002000000000002
H -3.4141360536163052 6.191901423812719 2.3195
X -3.1638475703481843 6.886216393530846 1.7994
0 5 A
0 3 A
5 2 A
5 6 S
3 1 A
3 7 S
1 4 A
4 2 A
4 8 S
6 9 D
6 10 S
11 12 S
12 13 A
11 14 S
12 0 S
15 14 S
16 17 S
17 18 A
16 19 S
17 1 S
20 19 S
21 22 S
22 23 A
21 24 S
22 2 S
25 24 S
