28
Properties=species:S:1:pos:R:3 mol=T to=T xyz=T file=T pbc="F F F"
C 3.26110000 20.34070000 28.01280000
C 3.38040000 20.92580000 26.86970000
C 3.32790000 22.23870000 26.87590000
C 3.13670000 22.91460000 27.99070000
C 3.01290000 22.27290000 29.12800000
C 3.06710000 20.98090000 29.13240000
H 2.85960000 22.85410000 30.09660000
H 2.94640000 20.40160000 30.10680000
C 3.56754786 20.10942999 25.62494302
C 3.43400000 26.74660000 27.74590000
C 3.25180000 26.21230000 28.92940000
C 3.23490000 24.92000000 29.05780000
C 3.37250000 24.15870000 28.00360000
C 3.52010000 24.72250000 26.82320000
C 3.56550000 26.03280000 26.68770000
H 3.10890000 26.88160000 29.84100000
H 3.10040000 24.45130000 30.08830000
H 3.71540000 26.53590000 25.67580000
N 3.45810000 22.79290000 25.73640000
C 3.59530000 23.91860000 25.76280000
H 3.82110000 24.35280000 24.73320000
F 2.34534554 19.61007846 25.21539829
F 4.10407485 20.87174577 24.60277825
F 4.42142029 19.05535104 25.89150224
F 3.21144082546966 18.901601623798786 28.0128
X 3.2322845251876733 18.09583161834629 28.14167917409927
F 3.4618579137951735 28.186285419332634 27.7459
X 3.4886594134469764 28.987662569851974 27.590338898680933
0 1 A
0 5 A
1 8 S
1 2 A
5 4 A
5 7 S
8 21 S
8 22 S
8 23 S
2 3 A
2 18 A
3 4 A
3 12 A
4 6 S
9 10 A
9 14 A
10 11 A
10 15 S
14 13 A
14 17 S
11 16 S
11 12 A
12 13 A
13 19 A
19 20 S
19 18 A
25 24 S
27 26 S
