30
Properties=species:S:1:pos:R:3 mol=T to=T xyz=T file=T pbc="F F F"
C 3.26110000 20.34070000 28.01280000
C 3.38040000 20.92580000 26.86970000
C 3.32790000 22.23870000 26.87590000
C 3.13670000 22.91460000 27.99070000
C 3.01290000 22.27290000 29.12800000
C 3.06710000 20.98090000 29.13240000
H 2.85960000 22.85410000 30.09660000
H 2.94640000 20.40160000 30.10680000
H 3.52260000 20.30550000 25.92390000
C 3.43400000 26.74660000 27.74590000
C 3.25180000 26.21230000 28.92940000
C 3.23490000 24.92000000 29.05780000
C 3.37250000 24.15870000 28.00360000
C 3.52010000 24.72250000 26.82320000
C 3.56550000 26.03280000 26.68770000
C 3.05875503 27.11646375 30.16088914
H 3.10040000 24.45130000 30.08830000
H 3.71540000 26.53590000 25.67580000
N 3.45810000 22.79290000 25.73640000
C 3.59530000 23.91860000 25.76280000
H 3.82110000 24.35280000 24.73320000
N 2.87004160 28.00278459 31.36901810
N 3.518836517269473 19.346456172930502 28.0291
H 3.2791555832441004 18.981200167004893 27.0994
H 2.8632335467563115 18.899346214358427 28.6815
X 3.2322845251876733 18.09583161834629 28.14167917409927
N 3.162029297188786 27.73704476716896 27.7622
H 3.3964466129889668 28.105701005490026 26.8325
H 3.811151811015303 28.19351221622042 28.4146
X 3.4886594134469764 28.987662569851974 27.590338898680933
0 1 A
0 5 A
1 8 S
1 2 A
5 4 A
5 7 S
2 3 A
2 18 A
3 4 A
3 12 A
4 6 S
9 10 A
9 14 A
10 11 A
10 15 S
14 13 A
14 17 S
11 16 S
11 12 A
15 21 T
12 13 A
13 19 A
19 20 S
19 18 A
22 23 S
22 24 S
23 0 S
25 24 S
26 27 S
26 28 S
27 9 S
29 28 S
