31
mol to xyz file
C 3.2611 20.3407 28.0128
C 3.3804 20.9258 26.8697
C 3.3279 22.2387 26.8759
C 3.1367 22.9146 27.9907
C 3.0129 22.2729 29.1280
C 3.0671 20.9809 29.1324
H 2.8596 22.8541 30.0966
H 2.9464 20.4016 30.1068
H 3.5226 20.3055 25.9239
C 3.4340 26.7466 27.7459
C 3.2518 26.2123 28.9294
C 3.2349 24.9200 29.0578
C 3.3725 24.1587 28.0036
C 3.5201 24.7225 26.8232
C 3.5655 26.0328 26.6877
H 3.1089 26.8816 29.8410
H 3.1004 24.4513 30.0883
H 3.7154 26.5359 25.6758
N 3.4581 22.7929 25.7364
C 3.5953 23.9186 25.7628
H 3.8211 24.3528 24.7332
O 4.073522075137815 18.471370927356883 28.3401
C 3.029516415687022 19.245336419504117 27.999999999999996
O 1.9616798842103806 18.79120208690644 27.7136
H 3.7141419693885287 17.522991662720823 28.532899999999998
X 3.2322845251876733 18.09583161834629 28.14167917409927
O 2.591579364668396 28.602603309040017 28.0732
C 3.647913677080301 27.845550985603083 27.733099999999997
O 4.708298294141136 28.31682300249009 27.4467
H 2.9356400448100293 29.55664709125364 28.266
X 3.4886594134469764 28.987662569851974 27.590338898680933
0 1 A
0 5 A
1 8 S
1 2 A
2 3 A
3 4 A
4 6 S
4 5 A
5 7 S
9 10 A
9 14 A
10 11 A
10 15 S
11 16 S
11 12 A
12 13 A
13 14 A
14 17 S
19 20 S
12 3 A
18 2 A
19 13 A
19 18 A
21 22 S
22 23 A
21 24 S
22 0 S
25 24 S
26 27 S
27 28 A
26 29 S
27 9 S
30 29 S
