32
Properties=species:S:1:pos:R:3 mol=T to=T xyz=T file=T pbc="F F F"
C 3.26110000 20.34070000 28.01280000
C 3.38040000 20.92580000 26.86970000
C 3.32790000 22.23870000 26.87590000
C 3.13670000 22.91460000 27.99070000
C 3.01290000 22.27290000 29.12800000
C 3.06710000 20.98090000 29.13240000
O 2.82509095 22.98493275 30.31463957
H 2.94640000 20.40160000 30.10680000
H 3.52260000 20.30550000 25.92390000
C 3.43400000 26.74660000 27.74590000
C 3.25180000 26.21230000 28.92940000
C 3.23490000 24.92000000 29.05780000
C 3.37250000 24.15870000 28.00360000
C 3.52010000 24.72250000 26.82320000
C 3.56550000 26.03280000 26.68770000
H 3.10890000 26.88160000 29.84100000
H 3.10040000 24.45130000 30.08830000
H 3.71540000 26.53590000 25.67580000
N 3.45810000 22.79290000 25.73640000
C 3.59530000 23.91860000 25.76280000
H 3.82110000 24.35280000 24.73320000
H 2.68570416 22.39084518 31.12395032
O 4.073522075137815 18.471370927356883 28.3401
C 3.029516415687022 19.245336419504117 27.999999999999996
O 1.9616798842103806 18.79120208690644 27.7136
H 3.7141419693885287 17.522991662720823 28.532899999999998
X 3.2322845251876733 18.09583161834629 28.14167917409927
O 2.591579364668396 28.602603309040017 28.0732
C 3.647913677080301 27.845550985603083 27.733099999999997
O 4.708298294141136 28.31682300249009 27.4467
H 2.9356400448100293 29.55664709125364 28.266
X 3.4886594134469764 28.987662569851974 27.590338898680933
0 1 A
0 5 A
1 8 S
1 2 A
5 4 A
5 7 S
2 3 A
2 18 A
3 4 A
3 12 A
4 6 S
6 21 S
9 10 A
9 14 A
10 11 A
10 15 S
14 13 A
14 17 S
11 16 S
11 12 A
12 13 A
13 19 A
19 20 S
19 18 A
22 23 S
23 24 A
22 25 S
23 0 S
26 25 S
27 28 S
28 29 A
27 30 S
28 9 S
31 30 S
