30
Properties=species:S:1:pos:R:3 mol=T to=T xyz=T file=T pbc="F F F"
C 45.42350000 11.75800000 3.72560000
C 44.72830000 10.52010000 3.25580000
O 45.66670000 12.08340000 0.23410000
C 42.82440000 7.25680000 1.38650000
C 43.51960000 8.49470000 1.85640000
O 42.58080000 6.93120000 4.87750000
C 45.42300000 11.75840000 1.38550000
C 44.69850000 10.53730000 1.85560000
C 44.15700000 9.48840000 4.00310000
O 45.58320000 12.13250000 4.87710000
N 45.82700000 12.45680000 2.55570000
C 42.82490000 7.25670000 3.72650000
C 43.54940000 8.47780000 3.25630000
C 44.09090000 9.52630000 1.10910000
O 42.66460000 6.88230000 0.23510000
N 42.42090000 6.55790000 2.55650000
H 44.20830000 9.51340000 5.14170000
N 44.02612042 9.49473100 -0.32867831
O 43.62027010 10.53553848 -0.99666494
O 44.37223757 8.42482575 -0.98418523
O 45.97348793387381 14.489768788552686 2.8829999999999996
C 46.539880450249576 13.320080831277956 2.5428999999999995
O 47.696581167970855 13.22758056304549 2.2565
H 46.731486979599275 15.163574945158052 3.0757999999999996
X 46.95207039159761 14.405397453379521 2.5555458503055934
O 42.274431488088304 4.524929812068467 2.8838
C 41.70802779713133 5.694612358262226 2.5437
O 40.551326195762066 5.7871015759569255 2.2573
H 41.516438879600614 3.851116413954399 3.0766
X 41.29584868285651 4.609391538760024 2.5565981874241595
0 9 D
0 10 S
0 1 S
10 6 S
1 7 A
1 8 A
7 6 S
7 13 A
8 16 S
8 12 A
2 6 D
3 4 S
3 14 D
3 15 S
4 12 A
4 13 A
15 11 S
12 11 S
13 17 S
5 11 D
17 18 D
17 19 S
20 21 S
21 22 A
20 23 S
10 21 S
24 23 S
25 26 S
26 27 A
25 28 S
15 26 S
29 28 S
