26
mol to xyz file
C 45.4235 11.7580 3.7256
C 44.7283 10.5201 3.2558
O 45.6667 12.0834 0.2341
C 42.8244 7.2568 1.3865
C 43.5196 8.4947 1.8564
O 42.5808 6.9312 4.8775
C 45.4230 11.7584 1.3855
C 44.6985 10.5373 1.8556
C 44.1570 9.4884 4.0031
O 45.5832 12.1325 4.8771
N 45.8270 12.4568 2.5557
C 42.8249 7.2567 3.7265
C 43.5494 8.4778 3.2563
C 44.0909 9.5263 1.1091
O 42.6646 6.8823 0.2351
N 42.4209 6.5579 2.5565
H 44.2083 9.5134 5.1417
H 44.0396 9.5013 -0.0295
N 46.06844479625199 13.455125252792314 2.572
H 46.45201857546128 13.664242578480797 1.6423
H 46.85740670657875 13.540340709450978 3.2244
X 46.95207039159761 14.405397453379521 2.5555458503055934
N 42.179471673405835 5.55957076416748 2.5728000000000004
H 41.79590134411031 5.350447110593507 1.6431000000000004
H 41.39051116900744 5.47434229181562 3.2252000000000005
X 41.29584868285651 4.609391538760024 2.5565981874241595
0 9 D
0 10 S
0 1 S
1 7 A
1 8 A
2 6 D
3 4 S
3 14 D
3 15 S
4 12 A
4 13 A
5 11 D
6 10 S
6 7 S
7 13 A
8 16 S
8 12 A
11 12 S
11 15 S
13 17 S
18 19 S
18 20 S
19 10 S
21 20 S
22 23 S
22 24 S
23 15 S
25 24 S
