27
Properties=species:S:1:pos:R:3 mol=T to=T xyz=T file=T pbc="F F F"
C 45.42350000 11.75800000 3.72560000
C 44.72830000 10.52010000 3.25580000
O 45.66670000 12.08340000 0.23410000
C 42.82440000 7.25680000 1.38650000
C 43.51960000 8.49470000 1.85640000
O 42.58080000 6.93120000 4.87750000
C 45.42300000 11.75840000 1.38550000
C 44.69850000 10.53730000 1.85560000
C 44.15700000 9.48840000 4.00310000
O 45.58320000 12.13250000 4.87710000
N 45.82700000 12.45680000 2.55570000
C 42.82490000 7.25670000 3.72650000
C 43.54940000 8.47780000 3.25630000
C 44.09090000 9.52630000 1.10910000
O 42.66460000 6.88230000 0.23510000
N 42.42090000 6.55790000 2.55650000
S 44.23844311 9.52808962 5.81072421
H 44.03960000 9.50130000 -0.02950000
H 42.97591335 9.88119478 6.32979694
N 46.06844479625199 13.455125252792314 2.572
H 46.45201857546128 13.664242578480797 1.6423
H 46.85740670657875 13.540340709450978 3.2244
X 46.95207039159761 14.405397453379521 2.5555458503055934
N 42.179471673405835 5.55957076416748 2.5728000000000004
H 41.79590134411031 5.350447110593507 1.6431000000000004
H 41.39051116900744 5.47434229181562 3.2252000000000005
X 41.29584868285651 4.609391538760024 2.5565981874241595
0 9 D
0 10 S
0 1 S
10 6 S
1 7 A
1 8 A
7 6 S
7 13 A
8 16 S
8 12 A
2 6 D
3 4 S
3 14 D
3 15 S
4 12 A
4 13 A
15 11 S
12 11 S
13 17 S
5 11 D
16 18 S
19 20 S
19 21 S
10 20 S
22 21 S
23 24 S
23 25 S
15 24 S
26 25 S
