36
mol to xyz file
C 31.9462 9.1761 0.9843
C 33.2828 9.6172 1.6089
C 33.3900 10.9806 2.3159
C 32.1525 11.8888 2.4331
C 30.8221 11.4575 1.7855
C 30.7181 10.1015 1.0633
C 32.2667 13.2530 3.1438
C 33.6475 13.7699 3.5908
C 34.8821 12.8548 3.4850
C 34.7415 11.4419 2.8897
H 31.8677 8.1681 0.4585
H 34.1967 8.9397 1.5377
H 29.9129 12.1427 1.8430
H 29.7322 9.7822 0.5888
H 35.8962 13.2181 3.8583
C 26.9864 12.0806 4.4519
C 27.0489 13.6055 4.2474
C 28.3892 14.2880 3.9022
C 29.6605 13.4317 3.7301
C 29.5991 11.9098 3.9637
C 28.2631 11.2334 4.3169
C 31.0095 14.1065 3.4059
C 31.1135 15.6414 3.3927
C 29.8438 16.4982 3.5456
C 28.4749 15.8239 3.7588
H 25.9952 11.5804 4.7107
H 26.1039 14.2278 4.3671
H 30.5476 11.2829 3.8772
H 28.2197 10.1057 4.4795
H 29.9152 17.6344 3.4908
H 32.1245 16.1430 3.2346
H 33.7474 14.8123 4.0415
F 35.91912723087927 10.6132479167397 2.8897
X 36.55726154216541 10.13209002219697 2.7012176945325845
F 27.30615201417746 16.66502919081182 3.7588
X 26.642398472782702 17.112031435281676 3.9619957201602487
0 1 A
0 5 A
0 10 S
1 11 S
1 2 A
2 3 A
2 9 A
3 4 A
3 6 A
4 12 S
4 5 A
5 13 S
6 21 S
6 7 A
7 31 S
7 8 A
8 9 A
8 14 S
15 20 A
15 25 S
15 16 A
16 26 S
16 17 A
17 24 A
17 18 A
18 19 A
18 21 A
19 20 A
19 27 S
20 28 S
21 22 A
22 30 S
22 23 A
23 24 A
23 29 S
33 32 S
35 34 S
