40
Properties=species:S:1:pos:R:3 mol=T to=T xyz=T file=T pbc="F F F"
C 31.94620000 9.17610000 0.98430000
C 33.28280000 9.61720000 1.60890000
C 33.39000000 10.98060000 2.31590000
C 32.15250000 11.88880000 2.43310000
C 30.82210000 11.45750000 1.78550000
C 30.71810000 10.10150000 1.06330000
C 32.26670000 13.25300000 3.14380000
C 33.64750000 13.76990000 3.59080000
C 34.88210000 12.85480000 3.48500000
C 34.74150000 11.44190000 2.88970000
H 31.86770000 8.16810000 0.45850000
H 34.19670000 8.93970000 1.53770000
H 29.91290000 12.14270000 1.84300000
H 29.73220000 9.78220000 0.58880000
H 35.89620000 13.21810000 3.85830000
C 26.98640000 12.08060000 4.45190000
C 27.04890000 13.60550000 4.24740000
C 28.38920000 14.28800000 3.90220000
C 29.66050000 13.43170000 3.73010000
C 29.59910000 11.90980000 3.96370000
C 28.26310000 11.23340000 4.31690000
C 31.00950000 14.10650000 3.40590000
C 31.11350000 15.64140000 3.39270000
C 29.84380000 16.49820000 3.54560000
C 28.47490000 15.82390000 3.75880000
H 25.99520000 11.58040000 4.71070000
H 26.10390000 14.22780000 4.36710000
Cl 30.72694097 11.16436668 3.86084471
H 28.21970000 10.10570000 4.47950000
H 29.91520000 17.63440000 3.49080000
H 32.12450000 16.14300000 3.23460000
H 33.74740000 14.81230000 4.04150000
N 35.70381198385666 11.082867208007594 2.906
H 35.86558604426538 10.6770494491812 1.9763000000000002
H 35.69412078809871 10.289375777225393 3.5584000000000002
X 36.55726154216541 10.13209002219697 2.7012176945325845
N 27.515560018571026 16.190800122692615 3.7751
H 27.357114198223698 16.597928876300685 2.8454
H 27.53174796070472 16.98418560310518 4.4275
X 26.642398472782702 17.112031435281676 3.9619957201602487
9 2 A
9 8 A
0 1 A
0 5 A
0 10 S
1 11 S
1 2 A
5 4 A
5 13 S
2 3 A
3 4 A
3 6 A
4 12 S
6 21 S
6 7 A
21 18 A
21 22 A
7 31 S
7 8 A
8 14 S
15 20 A
15 25 S
15 16 A
20 19 A
20 28 S
16 26 S
16 17 A
17 24 A
17 18 A
24 23 A
18 19 A
19 27 S
22 30 S
22 23 A
23 29 S
32 33 S
32 34 S
33 9 S
35 34 S
36 37 S
36 38 S
24 37 S
39 38 S
