35
Properties=species:S:1:pos:R:3 mol=T to=T xyz=T file=T pbc="F F F"
C 7.81500000 14.61520000 4.52000000
C 9.01020000 13.91890000 4.90780000
C 9.02830000 18.22210000 4.68380000
S 7.69010000 11.55720000 3.93840000
C 8.51760000 10.09870000 4.25090000
C 9.71820000 10.25870000 4.90570000
C 9.96990000 11.57910000 5.17370000
H 6.89330000 14.07260000 4.40770000
H 10.37370000 9.44950000 5.19750000
H 10.84090000 11.91470000 5.71990000
C 7.81860000 16.02660000 4.44450000
C 10.19810000 16.02030000 4.52000000
C 9.00290000 16.71660000 4.90780000
C 8.98480000 12.41340000 4.68380000
S 10.32300000 19.07830000 3.93840000
C 9.49550000 20.53680000 4.25090000
C 8.29490000 20.37680000 4.90570000
C 8.04320000 19.05640000 5.17370000
H 11.11980000 16.56290000 4.40770000
H 7.63940000 21.18600000 5.19750000
H 7.17220000 18.72080000 5.71990000
C 10.19440000 14.60890000 4.44450000
C 10.09725148 21.86004059 3.81270558
H 8.06580000 9.10520000 3.92190000
O 11.40254244 22.06286826 3.94315298
O 9.36941016 22.75015030 3.37151019
H 11.58661281 23.04722788 3.78196479
N 6.845588514347593 16.355533958095684 4.4608
H 6.671272903726309 16.75612473169604 3.5311
H 6.830599673702662 17.14894299803418 5.1132
X 5.952782381991498 17.174460093880484 4.4607148156336525
N 11.18473290515843 14.336522253184178 4.4608
H 11.381819212236213 13.946630104555302 3.5311
H 11.24536896583886 13.545291668496528 5.1132
X 12.06028733601989 13.460994184334975 4.460729973451761
0 10 A
0 7 S
0 1 A
10 12 A
1 21 A
1 13 S
21 11 A
13 3 A
13 6 A
2 14 A
2 17 A
2 12 S
14 15 A
17 16 A
17 20 S
12 11 A
3 4 A
4 23 S
4 5 A
5 6 A
5 8 S
6 9 S
11 18 S
15 22 S
15 16 A
22 24 S
22 25 D
16 19 S
24 26 S
27 28 S
27 29 S
10 28 S
30 29 S
31 32 S
31 33 S
21 32 S
34 33 S
