34
mol to xyz file
C 7.8150 14.6152 4.5200
C 9.0102 13.9189 4.9078
C 9.0283 18.2221 4.6838
S 7.6901 11.5572 3.9384
C 8.5176 10.0987 4.2509
C 9.7182 10.2587 4.9057
C 9.9699 11.5791 5.1737
H 6.8933 14.0726 4.4077
H 10.3737 9.4495 5.1975
H 10.8409 11.9147 5.7199
C 7.8186 16.0266 4.4445
C 10.1981 16.0203 4.5200
C 9.0029 16.7166 4.9078
C 8.9848 12.4134 4.6838
S 10.3230 19.0783 3.9384
C 9.4955 20.5368 4.2509
C 8.2949 20.3768 4.9057
C 8.0432 19.0564 5.1737
H 11.1198 16.5629 4.4077
H 7.6394 21.1860 5.1975
H 7.1722 18.7208 5.7199
C 10.1944 14.6089 4.4445
H 9.9473 21.5303 3.9219
H 8.0658 9.1052 3.9219
O 5.787901678135871 16.20177173167555 4.7718
C 6.96546856183235 16.75159591668505 4.4317
O 7.074288173280415 17.906875598045495 4.1453
H 5.124862951314629 16.96920702975303 4.9646
X 5.952782381991498 17.174460093880484 4.4607148156336525
O 12.219686638690032 14.379477156447686 4.7718
C 11.027835233806364 13.861345292269435 4.4317
O 10.888155031304173 12.709389437633961 4.1453
H 12.861962067610447 13.59458253714832 4.9646
X 12.06028733601989 13.460994184334975 4.460729973451761
0 10 A
0 7 S
0 1 A
1 21 A
1 13 S
2 14 A
2 17 A
2 12 S
3 4 A
3 13 A
4 23 S
4 5 A
5 6 A
5 8 S
6 9 S
6 13 A
10 12 A
11 18 S
11 21 A
11 12 A
14 15 A
15 22 S
15 16 A
16 19 S
16 17 A
17 20 S
24 25 S
25 26 A
24 27 S
25 10 S
28 27 S
29 30 S
30 31 A
29 32 S
30 21 S
33 32 S
