39
Properties=species:S:1:pos:R:3 mol=T to=T xyz=T file=T pbc="F F F"
C 6.77410000 14.32060000 3.79070000
C 12.81390000 15.23910000 3.79070000
N 11.60940000 14.59360000 3.79070000
C 10.39870000 15.20300000 3.79070000
C 10.31970000 16.60310000 3.79070000
C 9.05970000 17.21850000 3.79070000
C 5.53380000 14.97060000 3.79070000
C 13.77240000 17.62530000 3.79070000
C 13.28420000 18.91350000 3.79070000
S 11.59020000 19.03840000 3.79070000
H 8.96470000 18.29680000 3.79070000
H 14.82570000 17.48640000 3.79070000
C 11.52100000 17.32500000 3.79070000
C 5.48120000 16.40650000 3.79070000
N 6.68570000 17.05210000 3.79070000
C 7.89640000 16.44270000 3.79070000
C 7.97550000 15.04260000 3.79070000
C 9.23540000 14.42720000 3.79070000
C 12.76140000 16.67510000 3.79070000
C 4.52280000 14.02040000 3.79070000
C 5.01100000 12.73220000 3.79070000
S 6.70490000 12.60730000 3.79070000
H 9.33050000 13.34880000 3.79070000
H 3.46950000 14.15920000 3.79070000
H 13.68720000 19.45350000 2.87120000
C 13.76825147 19.63181238 5.01570031
H 4.60800000 12.19210000 2.87120000
H 4.64310000 12.18640000 4.72150000
F 12.99976060 19.25643317 6.10168813
F 13.68032205 21.00346686 4.85872960
F 15.08708076 19.29329012 5.25512952
N 13.829399818336451 15.393077332613059 3.8070000000000004
H 14.168031114676374 15.117056056007167 2.8773000000000004
H 14.206617534984662 14.694915915570615 4.4594000000000005
X 14.89274430496268 14.54996308568284 3.7907
N 4.465700181663548 16.252522667386945 3.8070000000000004
H 4.127068885323628 16.528543943992837 2.8773000000000004
H 4.088482465015339 16.95068408442939 4.4594000000000005
X 3.402355695037322 17.095636914317158 3.7907
0 21 S
0 6 S
0 16 D
21 20 S
6 13 S
6 19 D
16 15 S
16 17 S
1 18 S
1 2 D
18 7 D
18 12 S
2 3 S
3 4 S
3 17 D
4 12 D
4 5 S
17 22 S
12 9 S
5 10 S
5 15 D
15 14 S
13 14 D
19 23 S
19 20 S
7 8 S
7 11 S
8 9 S
8 24 S
8 25 S
25 28 S
25 29 S
25 30 S
20 26 S
20 27 S
31 32 S
31 33 S
32 1 S
34 33 S
35 36 S
35 37 S
13 36 S
38 37 S
