40
Properties=species:S:1:pos:R:3 mol=T to=T xyz=T file=T pbc="F F F"
C 6.77410000 14.32060000 3.79070000
C 12.81390000 15.23910000 3.79070000
N 11.60940000 14.59360000 3.79070000
C 10.39870000 15.20300000 3.79070000
C 10.31970000 16.60310000 3.79070000
C 9.05970000 17.21850000 3.79070000
C 5.53380000 14.97060000 3.79070000
C 13.77240000 17.62530000 3.79070000
C 13.28420000 18.91350000 3.79070000
S 11.59020000 19.03840000 3.79070000
H 8.96470000 18.29680000 3.79070000
H 14.82570000 17.48640000 3.79070000
C 11.52100000 17.32500000 3.79070000
C 5.48120000 16.40650000 3.79070000
N 6.68570000 17.05210000 3.79070000
C 7.89640000 16.44270000 3.79070000
C 7.97550000 15.04260000 3.79070000
C 9.23540000 14.42720000 3.79070000
C 12.76140000 16.67510000 3.79070000
C 4.52280000 14.02040000 3.79070000
C 5.01100000 12.73220000 3.79070000
S 6.70490000 12.60730000 3.79070000
H 9.33050000 13.34880000 3.79070000
H 3.46950000 14.15920000 3.79070000
N 13.79313096 19.59544223 2.62950392
H 13.65200000 19.45930000 4.72150000
H 4.60800000 12.19210000 2.87120000
H 4.64310000 12.18640000 4.72150000
H 13.64685966 19.15751755 1.62011243
H 14.33175357 20.55926877 2.74364059
O 14.769618846804969 15.813194593470321 4.118
C 13.872044712865051 14.873337650057119 3.7779
O 14.19011371636563 13.757387400712574 3.4915000000000003
H 15.666052401461753 15.338869628825407 4.3108
X 14.89274430496268 14.54996308568284 3.7907
O 3.525481153195032 15.832405406529684 4.118
C 4.42305528713495 16.772262349942885 3.7779
O 4.104986283634373 17.88821259928743 3.4915000000000003
H 2.6290475985382473 16.3067303711746 4.3108
X 3.402355695037322 17.095636914317158 3.7907
0 21 S
0 6 S
0 16 D
21 20 S
6 13 S
6 19 D
16 15 S
16 17 S
1 18 S
1 2 D
18 7 D
18 12 S
2 3 S
3 4 S
3 17 D
4 12 D
4 5 S
17 22 S
12 9 S
5 10 S
5 15 D
15 14 S
13 14 D
19 23 S
19 20 S
7 8 S
7 11 S
8 9 S
8 24 S
8 25 S
24 28 S
24 29 S
20 26 S
20 27 S
30 31 S
31 32 A
30 33 S
31 1 S
34 33 S
35 36 S
36 37 A
35 38 S
13 36 S
39 38 S
