32
mol to xyz file
C 6.7741 14.3206 3.7907
C 12.8139 15.2391 3.7907
N 11.6094 14.5936 3.7907
C 10.3987 15.2030 3.7907
C 10.3197 16.6031 3.7907
C 9.0597 17.2185 3.7907
C 5.5338 14.9706 3.7907
C 13.7724 17.6253 3.7907
C 13.2842 18.9135 3.7907
S 11.5902 19.0384 3.7907
H 8.9647 18.2968 3.7907
H 14.8257 17.4864 3.7907
C 11.5210 17.3250 3.7907
C 5.4812 16.4065 3.7907
N 6.6857 17.0521 3.7907
C 7.8964 16.4427 3.7907
C 7.9755 15.0426 3.7907
C 9.2354 14.4272 3.7907
C 12.7614 16.6751 3.7907
C 4.5228 14.0204 3.7907
C 5.0110 12.7322 3.7907
S 6.7049 12.6073 3.7907
H 9.3305 13.3488 3.7907
H 3.4695 14.1592 3.7907
H 13.6872 19.4535 2.8712
H 13.6520 19.4593 4.7215
H 4.6080 12.1921 2.8712
H 4.6431 12.1864 4.7215
F 14.235946012870286 15.012703650030035 3.7907
X 14.89274430496268 14.54996308568284 3.7907
F 4.059153987129715 16.632896349969972 3.7907
X 3.402355695037322 17.095636914317158 3.7907
0 21 S
0 6 S
0 16 D
1 18 S
1 2 D
2 3 S
3 4 S
3 17 D
4 12 D
4 5 S
5 10 S
5 15 D
6 13 S
6 19 D
7 8 S
7 11 S
7 18 D
8 9 S
8 24 S
8 25 S
9 12 S
12 18 S
13 14 D
14 15 S
15 16 S
16 17 S
17 22 S
19 23 S
19 20 S
20 21 S
20 26 S
20 27 S
29 28 S
31 30 S
