23
Properties=species:S:1:pos:R:3 mol=T to=T xyz=T file=T pbc="F F F"
C 10.20600000 1.70250000 24.49590000
C 10.93120000 1.70250000 25.74980000
C 12.40870000 1.70250000 25.74980000
C 13.13350000 1.70250000 24.49540000
C 12.38740000 1.70250000 23.32570000
C 10.95170000 1.70250000 23.32620000
H 12.91320000 1.70250000 22.37120000
N 10.25659476 1.70250000 22.06555407
N 12.99130000 1.70250000 26.95340000
N 10.34870000 1.70250000 26.95340000
S 11.67000000 1.70250000 28.15150000
O 10.63673580 2.48740202 21.09931268
O 9.23652969 0.91767507 21.87138729
O 14.979486584043466 2.56664949026863 24.8227
C 14.234886317114277 1.50150121773143 24.482599999999998
O 14.718573304093463 0.446721739059704 24.1962
H 15.937503426664913 2.2338116630109166 25.0155
X 15.381505741397335 1.7025 24.496232157663023
O 8.366786332020347 0.8240275226184739 24.8232
C 9.10308456741242 1.894931490562622 24.483099999999997
O 8.611213254953912 2.945919341101506 24.1967
H 7.406211240489867 1.1494085047474374 25.016
X 7.958009918737316 1.7025 24.497243821117593
3 2 A
3 4 A
0 1 A
0 5 A
1 2 A
1 9 A
5 4 A
5 7 S
2 8 A
9 10 A
8 10 A
4 6 S
7 11 D
7 12 S
13 14 S
14 15 A
13 16 S
14 3 S
17 16 S
18 19 S
19 20 A
18 21 S
19 0 S
22 21 S
