18
Properties=species:S:1:pos:R:3 mol=T to=T xyz=T file=T pbc="F F F"
C 10.20600000 1.70250000 24.49590000
C 10.93120000 1.70250000 25.74980000
C 12.40870000 1.70250000 25.74980000
C 13.13350000 1.70250000 24.49540000
C 12.38740000 1.70250000 23.32570000
C 10.95170000 1.70250000 23.32620000
C 13.11129524 1.70250000 22.01159196
H 10.42540000 1.70250000 22.37170000
N 12.99130000 1.70250000 26.95340000
N 10.34870000 1.70250000 26.95340000
S 11.67000000 1.70250000 28.15150000
F 12.76224573 2.83203170 21.29522619
F 14.48236386 1.69608490 22.19581211
F 12.75234793 0.57930019 21.28991794
F 14.573395722243044 1.6894432367647076 24.4954
X 15.381505741397335 1.7025 24.496232157663023
F 8.766106751712272 1.7158267976429527 24.4959
X 7.958009918737316 1.7025 24.497243821117593
3 2 A
3 4 A
0 1 A
0 5 A
1 2 A
1 9 A
5 4 A
5 7 S
2 8 A
9 10 A
8 10 A
4 6 S
6 11 S
6 12 S
6 13 S
15 14 S
17 16 S
