21
Properties=species:S:1:pos:R:3 mol=T to=T xyz=T file=T pbc="F F F"
C 10.20600000 1.70250000 24.49590000
C 10.93120000 1.70250000 25.74980000
C 12.40870000 1.70250000 25.74980000
C 13.13350000 1.70250000 24.49540000
C 12.38740000 1.70250000 23.32570000
C 10.95170000 1.70250000 23.32620000
N 13.08200416 1.70250000 22.06476490
H 10.42540000 1.70250000 22.37170000
N 12.99130000 1.70250000 26.95340000
N 10.34870000 1.70250000 26.95340000
S 11.67000000 1.70250000 28.15150000
H 12.57014943 1.33964819 21.14912972
H 14.12951656 2.06530520 22.00825587
N 14.118451794009795 1.9937367824930148 24.5117
H 14.491610022867437 1.7665543970934683 23.582
H 14.58749301548927 1.353640772075013 25.1641
X 15.381505741397335 1.7025 24.496232157663023
N 9.225757974866456 1.3957843790054218 24.5122
H 8.849067464337137 1.6170605848594664 23.5825
H 8.746692147621458 2.0284126293753095 25.1646
X 7.958009918737316 1.7025 24.497243821117593
3 2 A
3 4 A
0 1 A
0 5 A
1 2 A
1 9 A
5 4 A
5 7 S
2 8 A
9 10 A
8 10 A
4 6 S
6 11 S
6 12 S
13 14 S
13 15 S
14 3 S
16 15 S
17 18 S
17 19 S
18 0 S
20 19 S
