21
mol to xyz file
C 10.2060 1.7025 24.4959
C 10.9312 1.7025 25.7498
C 12.4087 1.7025 25.7498
C 13.1335 1.7025 24.4954
C 12.3874 1.7025 23.3257
C 10.9517 1.7025 23.3262
H 12.9132 1.7025 22.3712
H 10.4254 1.7025 22.3717
N 12.9913 1.7025 26.9534
N 10.3487 1.7025 26.9534
S 11.6700 1.7025 28.1515
O 14.979486584043466 2.56664949026863 24.8227
C 14.234886317114277 1.50150121773143 24.482599999999998
O 14.718573304093463 0.446721739059704 24.1962
H 15.937503426664913 2.2338116630109166 25.0155
X 15.381505741397335 1.7025 24.496232157663023
O 8.366786332020347 0.8240275226184739 24.8232
C 9.10308456741242 1.894931490562622 24.483099999999997
O 8.611213254953912 2.945919341101506 24.1967
H 7.406211240489867 1.1494085047474374 25.016
X 7.958009918737316 1.7025 24.497243821117593
0 1 A
0 5 A
1 2 A
1 9 A
2 3 A
2 8 A
3 4 A
4 6 S
4 5 A
5 7 S
8 10 A
9 10 A
11 12 S
12 13 A
11 14 S
12 3 S
15 14 S
16 17 S
17 18 A
16 19 S
17 0 S
20 19 S
