19
mol to xyz file
C 10.2060 1.7025 24.4959
C 10.9312 1.7025 25.7498
C 12.4087 1.7025 25.7498
C 13.1335 1.7025 24.4954
C 12.3874 1.7025 23.3257
C 10.9517 1.7025 23.3262
H 12.9132 1.7025 22.3712
H 10.4254 1.7025 22.3717
N 12.9913 1.7025 26.9534
N 10.3487 1.7025 26.9534
S 11.6700 1.7025 28.1515
N 14.118451794009795 1.9937367824930148 24.5117
H 14.491610022867437 1.7665543970934683 23.582
H 14.58749301548927 1.353640772075013 25.1641
X 15.381505741397335 1.7025 24.496232157663023
N 9.225757974866456 1.3957843790054218 24.5122
H 8.849067464337137 1.6170605848594664 23.5825
H 8.746692147621458 2.0284126293753095 25.1646
X 7.958009918737316 1.7025 24.497243821117593
0 1 A
0 5 A
1 2 A
1 9 A
2 3 A
2 8 A
3 4 A
4 6 S
4 5 A
5 7 S
8 10 A
9 10 A
11 12 S
11 13 S
12 3 S
14 13 S
15 16 S
15 17 S
16 0 S
18 17 S
