24
mol to xyz file
C 0.2976 15.8559 0.0000
C 1.3652 16.7883 0.0000
O 0.5212 14.7230 0.0000
C 1.0361 18.1659 0.0000
C -0.3052 18.6242 0.0000
O 1.9054 18.9260 0.0000
C -1.3337 17.6505 0.0000
C -1.0600 16.2597 0.0000
O -2.4266 18.0233 0.0000
O -1.563512144174735 20.227656066695427 0.32730000000000004
C -0.3578458404972048 19.74253838594512 -0.012799999999999999
O 0.5606279185498477 20.451706069883116 -0.29919999999999997
H -1.4553745654499255 21.23606250958814 0.5201
X -0.7745840898238088 20.824560709146287 0.0
O 3.383879686227125 17.069996883926606 0.32730000000000004
C 2.358423006339955 16.27161790269352 -0.012799999999999999
O 2.5097497642985904 15.121134064334314 -0.29919999999999997
H 4.201244688520013 16.46958723791253 0.5201
X 3.5054590312219975 16.094689306057614 0.0
O -1.8048613216974678 14.362438177941929 0.32730000000000004
C -1.9974924024078144 15.647686662377668 -0.012799999999999999
O -3.074255878303735 16.080229454453246 -0.29919999999999997
H -2.729040449369386 13.944741840903198 0.5201
X -2.7211652937999022 14.742460371849466 0.0
0 2 S
0 1 A
0 7 A
1 3 A
3 4 A
3 5 S
4 6 A
6 7 A
6 8 S
9 10 S
10 11 A
9 12 S
4 10 S
13 12 S
14 15 S
15 16 A
14 17 S
1 15 S
18 17 S
19 20 S
20 21 A
19 22 S
7 20 S
23 22 S
