21
mol to xyz file
C 0.2976 15.8559 0.0000
C 1.3652 16.7883 0.0000
O 0.5212 14.7230 0.0000
C 1.0361 18.1659 0.0000
C -0.3052 18.6242 0.0000
O 1.9054 18.9260 0.0000
C -1.3337 17.6505 0.0000
C -1.0600 16.2597 0.0000
O -2.4266 18.0233 0.0000
N -0.8003736855363683 19.524062167863683 0.016300000000000002
H -0.6582661211228461 19.937177575633058 -0.9134
H -0.2754177585301753 20.119162028980345 0.6687000000000001
X -0.7745840898238088 20.824560709146287 0.0
N 2.39149035271187 16.7473486638735 0.016300000000000002
H 2.6717773438463093 16.412239573276416 -0.9134
H 2.629791736947837 15.990423951454078 0.6687000000000001
X 3.5054590312219975 16.094689306057614 0.0
N -1.5990708004005296 15.385427975881914 0.016300000000000002
H -2.028578402286228 15.305539804527216 -0.9134
H -2.3755751168513655 15.549023869880576 0.6687000000000001
X -2.7211652937999022 14.742460371849466 0.0
0 2 S
0 1 A
0 7 A
1 3 A
3 4 A
3 5 S
4 6 A
6 7 A
6 8 S
9 10 S
9 11 S
4 10 S
12 11 S
13 14 S
13 15 S
1 14 S
16 15 S
17 18 S
17 19 S
7 18 S
20 19 S
