40
mol to xyz file
C 7.3153 14.5179 5.0263
C 7.3075 12.9778 5.0266
C 9.9821 14.5051 5.0265
H 6.3172 12.4132 5.0268
C 8.6523 15.2816 5.0267
C 8.6377 12.2012 5.0264
H 8.6572 16.4216 5.0267
C 9.9744 12.9655 5.0260
C 11.3051 12.1916 5.0253
C 11.3020 10.6516 5.0248
C 13.9714 12.1885 5.0252
H 10.3135 10.0838 5.0249
C 12.6391 12.9600 5.0254
C 12.6349 9.8797 5.0246
H 12.6398 14.1002 5.0256
C 13.9691 10.6489 5.0252
C 15.3028 9.8804 5.0255
C 15.3062 8.3406 5.0256
C 17.9695 9.8883 5.0259
H 14.3200 7.7686 5.0255
C 16.6338 10.6542 5.0256
C 16.6423 7.5743 5.0260
H 16.6298 11.7944 5.0256
C 17.9737 8.3484 5.0256
H 16.6460 6.4343 5.0264
H 8.6333 11.0611 5.0263
H 12.6344 8.7396 5.0242
H 18.9554 10.4608 5.0264
H 10.9726 15.0696 5.0264
H 14.9599 12.7568 5.0250
O 5.2834581939029155 14.679268165993607 5.3536
C 6.457261582261346 15.2370817598386 5.0135000000000005
O 6.558228028901204 16.3930742453907 4.7271
H 4.615219703439768 15.44218009397975 5.5464
X 5.369101056181219 15.647060126989402 5.026121801506698
O 20.005369291835724 8.184874165307937 5.3529
C 18.83097418279765 7.628307432680614 5.0128
O 18.72878016110661 6.4724228225526765 4.7264
H 20.672797214157917 7.421253016763267 5.5457
X 19.922301289154316 7.223561840154504 5.02555128007774
0 4 A
0 1 A
1 3 S
1 5 A
2 4 A
2 7 A
4 6 S
5 7 A
8 9 A
8 12 A
9 11 S
9 13 A
10 15 A
10 12 A
12 14 S
13 15 A
16 20 A
16 17 A
17 19 S
17 21 A
18 20 A
18 23 A
20 22 S
21 23 A
2 28 S
5 25 S
7 8 S
10 29 S
13 26 S
15 16 S
18 27 S
21 24 S
30 31 S
31 32 A
30 33 S
0 31 S
34 33 S
35 36 S
36 37 A
35 38 S
36 23 S
39 38 S
