38
mol to xyz file
C 7.3153 14.5179 5.0263
C 7.3075 12.9778 5.0266
C 9.9821 14.5051 5.0265
H 6.3172 12.4132 5.0268
C 8.6523 15.2816 5.0267
C 8.6377 12.2012 5.0264
H 8.6572 16.4216 5.0267
C 9.9744 12.9655 5.0260
C 11.3051 12.1916 5.0253
C 11.3020 10.6516 5.0248
C 13.9714 12.1885 5.0252
H 10.3135 10.0838 5.0249
C 12.6391 12.9600 5.0254
C 12.6349 9.8797 5.0246
H 12.6398 14.1002 5.0256
C 13.9691 10.6489 5.0252
C 15.3028 9.8804 5.0255
C 15.3062 8.3406 5.0256
C 17.9695 9.8883 5.0259
H 14.3200 7.7686 5.0255
C 16.6338 10.6542 5.0256
C 16.6423 7.5743 5.0260
H 16.6298 11.7944 5.0256
C 17.9737 8.3484 5.0256
H 16.6460 6.4343 5.0264
H 8.6333 11.0611 5.0263
H 12.6344 8.7396 5.0242
H 18.9554 10.4608 5.0264
H 10.9726 15.0696 5.0264
H 14.9599 12.7568 5.0250
N 6.318672236438639 14.76625861349806 5.0426
H 6.112218570210265 15.151272618049665 4.1129
H 6.238927299353211 15.555792219501784 5.695
X 5.369101056181219 15.647060126989402 5.026121801506698
N 18.970071398165924 8.099014882326781 5.0419
H 19.176128348189692 7.713788412121397 4.1122
H 19.049002986700906 7.309399549185798 5.6943
X 19.922301289154316 7.223561840154504 5.02555128007774
0 4 A
0 1 A
1 3 S
1 5 A
2 4 A
2 7 A
4 6 S
5 7 A
8 9 A
8 12 A
9 11 S
9 13 A
10 15 A
10 12 A
12 14 S
13 15 A
16 20 A
16 17 A
17 19 S
17 21 A
18 20 A
18 23 A
20 22 S
21 23 A
2 28 S
5 25 S
7 8 S
10 29 S
13 26 S
15 16 S
18 27 S
21 24 S
30 31 S
30 32 S
0 31 S
33 32 S
34 35 S
34 36 S
35 23 S
37 36 S
