42
Properties=species:S:1:pos:R:3 mol=T to=T xyz=T file=T pbc="F F F"
C 7.31530000 14.51790000 5.02630000
C 7.30750000 12.97780000 5.02660000
C 9.98210000 14.50510000 5.02650000
H 6.31720000 12.41320000 5.02680000
C 8.65230000 15.28160000 5.02670000
C 8.63770000 12.20120000 5.02640000
H 8.65720000 16.42160000 5.02670000
C 9.97440000 12.96550000 5.02600000
C 11.30510000 12.19160000 5.02530000
C 11.30200000 10.65160000 5.02480000
C 13.97140000 12.18850000 5.02520000
H 10.31350000 10.08380000 5.02490000
C 12.63910000 12.96000000 5.02540000
C 12.63490000 9.87970000 5.02460000
H 12.63980000 14.10020000 5.02560000
C 13.96910000 10.64890000 5.02520000
C 15.30280000 9.88040000 5.02550000
C 15.30620000 8.34060000 5.02560000
C 17.96950000 9.88830000 5.02590000
H 14.32000000 7.76860000 5.02550000
C 16.63380000 10.65420000 5.02560000
C 16.64230000 7.57430000 5.02600000
N 16.62874975 12.09377423 5.02560000
C 17.97370000 8.34840000 5.02560000
H 16.64600000 6.43430000 5.02640000
H 8.63330000 11.06110000 5.02630000
H 12.63440000 8.73960000 5.02420000
H 18.95540000 10.46080000 5.02640000
H 10.97260000 15.06960000 5.02640000
H 14.95990000 12.75680000 5.02500000
O 15.87981972 12.75373878 5.86091516
O 17.37311347 12.75896213 4.19035671
O 5.2834581939029155 14.679268165993607 5.3536
C 6.457261582261346 15.2370817598386 5.0135000000000005
O 6.558228028901204 16.3930742453907 4.7271
H 4.615219703439768 15.44218009397975 5.5464
X 5.369101056181219 15.647060126989402 5.026121801506698
O 20.005369291835724 8.184874165307937 5.3529
C 18.83097418279765 7.628307432680614 5.0128
O 18.72878016110661 6.4724228225526765 4.7264
H 20.672797214157917 7.421253016763267 5.5457
X 19.922301289154316 7.223561840154504 5.02555128007774
0 4 A
0 1 A
4 2 A
4 6 S
1 3 S
1 5 A
5 7 A
5 25 S
2 7 A
2 28 S
7 8 S
8 9 A
8 12 A
9 11 S
9 13 A
12 10 A
12 14 S
13 15 A
13 26 S
10 15 A
10 29 S
15 16 S
23 18 A
23 21 A
16 20 A
16 17 A
20 18 A
20 22 S
17 19 S
17 21 A
21 24 S
18 27 S
22 30 D
22 31 S
32 33 S
33 34 A
32 35 S
0 33 S
36 35 S
37 38 S
38 39 A
37 40 S
38 23 S
41 40 S
