34
mol to xyz file
C 1.6780 28.8979 16.0915
C 1.6780 31.5235 16.0915
C 1.6780 30.3261 16.0915
C 1.6780 28.2004 14.9567
C 1.6780 26.8147 14.9567
C 1.6780 28.2004 17.2263
C 1.6780 26.8147 17.2263
C 1.6780 26.1156 16.0915
H 1.6780 28.7430 13.9541
H 1.6780 26.2447 13.9694
H 1.6780 28.7430 18.2289
H 1.6780 26.2447 18.2136
C 1.6780 36.1656 14.9567
C 1.6780 37.5513 14.9567
H 1.6780 35.6230 13.9541
H 1.6780 38.1213 13.9694
C 1.6780 35.4681 16.0915
C 1.6780 32.8425 16.0915
C 1.6780 34.0399 16.0915
C 1.6780 36.1656 17.2263
C 1.6780 37.5513 17.2263
C 1.6780 38.2504 16.0915
H 1.6780 35.6230 18.2289
H 1.6780 38.1213 18.2136
O 2.560909697972489 24.278512284286315 16.4188
C 1.4882314589719963 25.012223259790154 16.078699999999998
O 0.4384340260874062 24.517816342454925 15.7923
H 2.2378484494779958 23.3171545362439 16.6116
X 1.678 23.8656 16.0915
O 0.7950903020275073 40.087487715713685 16.4188
C 1.8677685410280014 39.353776740209845 16.078699999999998
O 2.9175659739125877 39.84818365754508 15.7923
H 1.1181515505219988 41.048845463756095 16.6116
X 1.678 40.5004 16.0915
0 2 S
0 5 A
0 3 A
1 2 T
1 17 S
3 4 A
3 8 S
4 9 S
4 7 A
5 6 A
5 10 S
6 7 A
6 11 S
12 14 S
12 16 A
12 13 A
13 15 S
13 21 A
16 19 A
16 18 S
17 18 T
19 22 S
19 20 A
20 21 A
20 23 S
24 25 S
25 26 A
24 27 S
7 25 S
28 27 S
29 30 S
30 31 A
29 32 S
21 30 S
33 32 S
