31
Properties=species:S:1:pos:R:3 mol=T to=T xyz=T file=T pbc="F F F"
C 1.67800000 28.89790000 16.09150000
C 1.67800000 31.52350000 16.09150000
C 1.67800000 30.32610000 16.09150000
C 1.67800000 28.20040000 14.95670000
C 1.67800000 26.81470000 14.95670000
C 1.67800000 28.20040000 17.22630000
C 1.67800000 26.81470000 17.22630000
C 1.67800000 26.11560000 16.09150000
H 1.67800000 28.74300000 13.95410000
C 1.67800000 26.03852159 13.61227729
H 1.67800000 28.74300000 18.22890000
H 1.67800000 26.24470000 18.21360000
C 1.67800000 36.16560000 14.95670000
C 1.67800000 37.55130000 14.95670000
H 1.67800000 35.62300000 13.95410000
H 1.67800000 38.12130000 13.96940000
C 1.67800000 35.46810000 16.09150000
C 1.67800000 32.84250000 16.09150000
C 1.67800000 34.03990000 16.09150000
C 1.67800000 36.16560000 17.22630000
C 1.67800000 37.55130000 17.22630000
C 1.67800000 38.25040000 16.09150000
H 1.67800000 35.62300000 18.22890000
H 1.67800000 38.12130000 18.21360000
H 2.47450782 26.25065680 13.12018055
H 1.65187679 25.09495937 13.78748255
H 0.90749759 26.28976442 13.09768800
F 1.6779999999999964 24.675645080566756 16.0915
X 1.678 23.8656 16.0915
F 1.6779999999999995 39.69035491943324 16.0915
X 1.678 40.5004 16.0915
0 2 S
0 5 A
0 3 A
2 1 T
5 6 A
5 10 S
3 4 A
3 8 S
1 17 S
17 18 T
4 9 S
4 7 A
9 24 S
9 25 S
9 26 S
7 6 A
6 11 S
12 14 S
12 16 A
12 13 A
16 19 A
16 18 S
13 15 S
13 21 A
21 20 A
19 22 S
19 20 A
20 23 S
28 27 S
30 29 S
