35
Properties=species:S:1:pos:R:3 mol=T to=T xyz=T file=T pbc="F F F"
C 1.67800000 28.89790000 16.09150000
C 1.67800000 31.52350000 16.09150000
C 1.67800000 30.32610000 16.09150000
C 1.67800000 28.20040000 14.95670000
C 1.67800000 26.81470000 14.95670000
C 1.67800000 28.20040000 17.22630000
C 1.67800000 26.81470000 17.22630000
C 1.67800000 26.11560000 16.09150000
H 1.67800000 28.74300000 13.95410000
H 1.67800000 26.24470000 13.96940000
H 1.67800000 28.74300000 18.22890000
H 1.67800000 26.24470000 18.21360000
C 1.67800000 36.16560000 14.95670000
C 1.67800000 37.55130000 14.95670000
H 1.67800000 35.62300000 13.95410000
C 1.67800000 38.31040739 13.64184609
C 1.67800000 35.46810000 16.09150000
C 1.67800000 32.84250000 16.09150000
C 1.67800000 34.03990000 16.09150000
C 1.67800000 36.16560000 17.22630000
C 1.67800000 37.55130000 17.22630000
C 1.67800000 38.25040000 16.09150000
H 1.67800000 35.62300000 18.22890000
H 1.67800000 38.12130000 18.21360000
O 2.14094508 39.55379300 13.60166973
O 1.28194966 37.75949093 12.61406360
H 2.23783078 39.82317593 12.62859552
N 1.9671582315324536 25.130035990340037 16.1078
H 1.7391891186865605 24.75735786703756 15.1781
H 1.32607413304124 24.662346190727398 16.7602
X 1.678 23.8656 16.0915
N 1.3888417684675427 39.23596400965996 16.1078
H 1.6168108813134359 39.60864213296244 15.1781
H 2.0299258669587528 39.7036538092726 16.7602
X 1.678 40.5004 16.0915
0 2 S
0 5 A
0 3 A
2 1 T
5 6 A
5 10 S
3 4 A
3 8 S
1 17 S
17 18 T
4 9 S
4 7 A
7 6 A
6 11 S
12 14 S
12 16 A
12 13 A
16 19 A
16 18 S
13 15 S
13 21 A
15 24 S
15 25 D
21 20 A
19 22 S
19 20 A
20 23 S
24 26 S
27 28 S
27 29 S
7 28 S
30 29 S
31 32 S
31 33 S
21 32 S
34 33 S
