34
Properties=species:S:1:pos:R:3 mol=T to=T xyz=T file=T pbc="F F F"
C 1.67800000 28.89790000 16.09150000
C 1.67800000 31.52350000 16.09150000
C 1.67800000 30.32610000 16.09150000
C 1.67800000 28.20040000 14.95670000
C 1.67800000 26.81470000 14.95670000
C 1.67800000 28.20040000 17.22630000
C 1.67800000 26.81470000 17.22630000
C 1.67800000 26.11560000 16.09150000
H 1.67800000 28.74300000 13.95410000
H 1.67800000 26.24470000 13.96940000
H 1.67800000 28.74300000 18.22890000
F 1.67800000 26.13680093 18.40049255
C 1.67800000 36.16560000 14.95670000
C 1.67800000 37.55130000 14.95670000
H 1.67800000 35.62300000 13.95410000
H 1.67800000 38.12130000 13.96940000
C 1.67800000 35.46810000 16.09150000
C 1.67800000 32.84250000 16.09150000
C 1.67800000 34.03990000 16.09150000
C 1.67800000 36.16560000 17.22630000
C 1.67800000 37.55130000 17.22630000
C 1.67800000 38.25040000 16.09150000
H 1.67800000 35.62300000 18.22890000
H 1.67800000 38.12130000 18.21360000
O 2.560909697972489 24.278512284286315 16.4188
C 1.4882314589719963 25.012223259790154 16.078699999999998
O 0.4384340260874062 24.517816342454925 15.7923
H 2.2378484494779958 23.3171545362439 16.6116
X 1.678 23.8656 16.0915
O 0.7950903020275073 40.087487715713685 16.4188
C 1.8677685410280014 39.353776740209845 16.078699999999998
O 2.9175659739125877 39.84818365754508 15.7923
H 1.1181515505219988 41.048845463756095 16.6116
X 1.678 40.5004 16.0915
0 2 S
0 5 A
0 3 A
2 1 T
5 6 A
5 10 S
3 4 A
3 8 S
1 17 S
17 18 T
4 9 S
4 7 A
7 6 A
6 11 S
12 14 S
12 16 A
12 13 A
16 19 A
16 18 S
13 15 S
13 21 A
21 20 A
19 22 S
19 20 A
20 23 S
24 25 S
25 26 A
24 27 S
7 25 S
28 27 S
29 30 S
30 31 A
29 32 S
21 30 S
33 32 S
