32
mol to xyz file
C 1.6780 28.8979 16.0915
C 1.6780 31.5235 16.0915
C 1.6780 30.3261 16.0915
C 1.6780 28.2004 14.9567
C 1.6780 26.8147 14.9567
C 1.6780 28.2004 17.2263
C 1.6780 26.8147 17.2263
C 1.6780 26.1156 16.0915
H 1.6780 28.7430 13.9541
H 1.6780 26.2447 13.9694
H 1.6780 28.7430 18.2289
H 1.6780 26.2447 18.2136
C 1.6780 36.1656 14.9567
C 1.6780 37.5513 14.9567
H 1.6780 35.6230 13.9541
H 1.6780 38.1213 13.9694
C 1.6780 35.4681 16.0915
C 1.6780 32.8425 16.0915
C 1.6780 34.0399 16.0915
C 1.6780 36.1656 17.2263
C 1.6780 37.5513 17.2263
C 1.6780 38.2504 16.0915
H 1.6780 35.6230 18.2289
H 1.6780 38.1213 18.2136
N 1.9671582315324536 25.130035990340037 16.1078
H 1.7391891186865605 24.75735786703756 15.1781
H 1.32607413304124 24.662346190727398 16.7602
X 1.678 23.8656 16.0915
N 1.3888417684675427 39.23596400965996 16.1078
H 1.6168108813134359 39.60864213296244 15.1781
H 2.0299258669587528 39.7036538092726 16.7602
X 1.678 40.5004 16.0915
0 2 S
0 5 A
0 3 A
1 2 T
1 17 S
3 4 A
3 8 S
4 9 S
4 7 A
5 6 A
5 10 S
6 7 A
6 11 S
12 14 S
12 16 A
12 13 A
13 15 S
13 21 A
16 19 A
16 18 S
17 18 T
19 22 S
19 20 A
20 21 A
20 23 S
24 25 S
24 26 S
7 25 S
27 26 S
28 29 S
28 30 S
21 29 S
31 30 S
